!Created with skrf (http://scikit-rf.org).
# Hz S RI R 50.0 
!freq ReS11 ImS11 ReS21 ImS21 ReS12 ImS12 ReS22 ImS22
2500000000.0 0.07450447794083569 0.014860365744324389 0.6411077970615513 -0.014198097438707046 0.6410714723455085 -0.014824525603997243 0.07430516523258207 0.014132416510370088
2750000000.0 0.0755550959943866 0.013871867206029028 0.6403384138605276 -0.014832401264828257 0.6407316276076502 -0.015233098585863919 0.07468411259029605 0.013774850305045466
3000000000.0 0.07560773327614068 0.013251170599301663 0.640743325271531 -0.01631716282781011 0.6407643536685074 -0.01633660644810795 0.07542643551290924 0.013156142417615197
3250000000.0 0.07591495638086158 0.012402429582775673 0.6402572290783223 -0.017396587386365816 0.6404317307942969 -0.017179955234055234 0.07570871189627922 0.01264127441482901
3500000000.0 0.07575044144782518 0.012089241112880037 0.6401564580686504 -0.01858719723849583 0.640438036540597 -0.018725945747589876 0.07631639347604258 0.012107752665909147
3750000000.0 0.07671264220653397 0.012372071673559746 0.6403477315938789 -0.019337217323526678 0.640340935152301 -0.01953748085688789 0.07624233937334032 0.011456394156588397
4000000000.0 0.07722303852820654 0.011915878378345316 0.6399047870941204 -0.020478442818715546 0.6398251889796379 -0.020720708086435065 0.07631055263624945 0.011337032153246974
4250000000.0 0.07691666377981202 0.012031147885126135 0.6396971391695404 -0.021908291692362282 0.6399481297141836 -0.02179136509158649 0.0762858369807301 0.011110611951687725
4500000000.0 0.077511023912887 0.011858452544951393 0.6396201197328595 -0.022769678752556897 0.6401831836475392 -0.023148565849910138 0.07625292343392796 0.011127198269424512
4750000000.0 0.0774324342341986 0.011162088109609187 0.6392208609591286 -0.02349340761209842 0.640112789574867 -0.023744168961326848 0.0761904046983709 0.011694041845729796
5000000000.0 0.07724806540754821 0.011312847227000523 0.6395685908346016 -0.02516871377649466 0.6400922036024554 -0.024886746296766998 0.07676403777387712 0.011430614598126845
5250000000.0 0.07759774398656001 0.011418480350732053 0.6397795850083537 -0.02641293299317153 0.639813261855606 -0.026457027607260285 0.07716612589526185 0.011189201345206698
5500000000.0 0.07770054627310195 0.01136354329867329 0.6397669354583717 -0.02805345684799853 0.6396425816214504 -0.027608172576341964 0.07742258609091424 0.011168994405860307
5750000000.0 0.0775926485174821 0.011645183806107408 0.6391609545265144 -0.02905198480762419 0.6392045623823328 -0.028684817064927638 0.07751992232325206 0.011154664839458964
6000000000.0 0.07806356380892877 0.011951655578665829 0.6389387317937578 -0.030324396073406076 0.6395964454729859 -0.0299372380468331 0.07822338604226714 0.01132404472585016
6250000000.0 0.07823606901058867 0.011922468973000614 0.6391859548049312 -0.03105451806872385 0.6393545550273511 -0.03042860939850958 0.07780317536794155 0.010934431868866274
6500000000.0 0.07892323214411463 0.011326256710740258 0.6390263903017599 -0.03195819017998923 0.6392767444774419 -0.03191037242940713 0.07816696622274627 0.011166156674709042
6750000000.0 0.07943689490397113 0.011330952762567341 0.639090755321849 -0.03385726686976421 0.639118562744886 -0.03351298499383189 0.0786788371557675 0.011215460634970312
7000000000.0 0.0792506531192728 0.011001130263543522 0.6391017530625527 -0.03445283987633873 0.6393242328392841 -0.03456564943225499 0.07870598069063853 0.010671482671310224
7250000000.0 0.07907258473487645 0.010658447744551623 0.6386976884460978 -0.035298808306880966 0.6387145981910659 -0.03538943412126517 0.07851123426756315 0.01084053714632973
7500000000.0 0.07941045755601375 0.011049690412280211 0.6390539531238163 -0.03619284612484492 0.6389428078448006 -0.03616968752838982 0.0790845011586207 0.011204412314437919
7750000000.0 0.07974015802358363 0.011239657634915272 0.6392556208698927 -0.03800659091874196 0.6390413303430057 -0.03800599577884799 0.07895259045980708 0.010817541439974838
8000000000.0 0.0796019928594815 0.010982114092990566 0.6388713739557467 -0.03895574046461808 0.6388175853072893 -0.038800800409337026 0.07924271009049351 0.011430457302262024
8250000000.0 0.0790346721706415 0.010620213190889613 0.6385743252785684 -0.040852594101917585 0.6386165220740941 -0.04079759832833947 0.07879765121913199 0.010151067375254357
8500000000.0 0.07886789521185862 0.011937580029387749 0.6382812545800335 -0.04136078870222504 0.6378962371885081 -0.04150958775939687 0.0791373453802248 0.011304748806790388
8750000000.0 0.07961049930205306 0.011577493487031437 0.6376025808755879 -0.04207521030728317 0.6379827457786744 -0.04197527662958202 0.07895103577327896 0.011191959667892696
9000000000.0 0.07979866030504831 0.011380179720732934 0.6388335085348222 -0.043547183232073176 0.6388388139453798 -0.04208956028757268 0.07955306335168866 0.010530605794368202
9250000000.0 0.08029428051349481 0.011511356776289061 0.6388389899271807 -0.04557636971292152 0.638888687126383 -0.0451884947126391 0.07913111251936576 0.011341546876477074
9500000000.0 0.07957118989058491 0.011348524013570742 0.6374196635328084 -0.046379454074795844 0.6376083632764902 -0.045949758916180486 0.07892305673403617 0.011154070205169309
9750000000.0 0.08008683761229085 0.011743151273445456 0.6377686888210045 -0.04742912100047029 0.6381449645118674 -0.04680592719219082 0.07974362244098318 0.011102395554376008
10000000000.0 0.0801576505445336 0.0115040552120164 0.6380520425966616 -0.04759352408763567 0.6381449856481952 -0.04819818551752789 0.07966004797173683 0.011000801881791067
10250000000.0 0.08009581991535196 0.01191806169339267 0.6382573482760627 -0.04976940059768403 0.6381274952207799 -0.049401195365834524 0.07987026698724765 0.011445513250764651
10500000000.0 0.08016444992035482 0.01172976329853696 0.6378072487741213 -0.050557545887760395 0.6377926791119685 -0.05026241337588784 0.07968261130981748 0.01143487326376302
10750000000.0 0.08050973536291593 0.011883546722336222 0.6378266514736307 -0.05202598561510142 0.6381507603082983 -0.05161089257250317 0.0804066101314316 0.011679144873290078
11000000000.0 0.08026393667257543 0.01172470124585607 0.6377452568602723 -0.053336750709348374 0.6380787188841415 -0.05263870197805998 0.08042682042752362 0.011153379339432997
11250000000.0 0.07983346434164941 0.012388213857362518 0.6376370121475615 -0.053300786265352645 0.6377346636714932 -0.052741009773376896 0.08019436130753342 0.011519400950104891
11500000000.0 0.08033191891669762 0.011801247816885943 0.6380226338202898 -0.05512517412512731 0.6382044164201506 -0.05508640627996637 0.08032471645117462 0.011011565059105251
11750000000.0 0.07995520832518743 0.011192992669893464 0.6376434122485415 -0.05679940590921839 0.6378860771164973 -0.056129002784767616 0.08045409989517052 0.011161979759720674
12000000000.0 0.0801887218263422 0.011355350713317666 0.6369768763561975 -0.05789870360882912 0.6373647007210419 -0.057320333382015067 0.08045788885977695 0.011164340100939528
12250000000.0 0.08033073068325707 0.011192468443660307 0.6362430261027474 -0.060253780005908725 0.6366517210974347 -0.058402547618838854 0.08072988503116107 0.011339380188907492
12500000000.0 0.08087952964726842 0.011523222434175345 0.6373963429188305 -0.06054828137737139 0.6376401497275073 -0.059432154243231755 0.08115377517678977 0.01169492441131031
12750000000.0 0.07981384714583316 0.01166034411919336 0.6362871297002921 -0.06097613067299591 0.6367140418271254 -0.061124364247370847 0.08047207559971196 0.011940706240337173
13000000000.0 0.0805237677621592 0.012179061410354504 0.6358102753329157 -0.061321442356284825 0.6364195350087156 -0.06143422622385137 0.08108374976371192 0.012143915748703216
13250000000.0 0.08078075052318237 0.012114570927661694 0.6364941733365702 -0.0615580262708748 0.6369758226459266 -0.062407687367444606 0.08135043322054603 0.011771338735620201
13500000000.0 0.08119456351221559 0.011958912240752786 0.6364366334760159 -0.0628543967893583 0.6364727747212687 -0.0643048395282085 0.0815408887260602 0.011477536360124198
13750000000.0 0.08150370132359383 0.012655639025819027 0.6363473727964769 -0.06475769018232817 0.6363366255443326 -0.06599301968481988 0.08047509443893391 0.011674851610558527
14000000000.0 0.0806141690882344 0.012175859109672602 0.6359114287750898 -0.06760044346993997 0.6359651156127143 -0.06686358559304555 0.08002619097775186 0.011403758500523633
14250000000.0 0.08063744472219068 0.013927315076227046 0.6360629356042655 -0.0678834655310554 0.6364685399215548 -0.06644870511670371 0.08037503618359877 0.012352717499207709
14500000000.0 0.08091997491185855 0.013172399670700259 0.6361206721588459 -0.06932250998413003 0.6364884772890995 -0.06849287645143685 0.08024127750332753 0.011454499081568727
14750000000.0 0.08088368476662802 0.013218204934611028 0.6359382941852588 -0.07098913341753096 0.6360274959822453 -0.07072602741785716 0.08038039777872104 0.012116236705603165
15000000000.0 0.07937853874967198 0.014888389666683734 0.6352194660778728 -0.07085564135595583 0.6356541169884282 -0.07116184890206097 0.08058848066006899 0.012820348431180363
15250000000.0 0.08010595750211359 0.016520990574210415 0.6355169099028032 -0.07181382874773 0.6357618205860441 -0.07305443516667842 0.07980806922530682 0.0132306858907168
15500000000.0 0.0787085744345066 0.015600804016419756 0.6349441591509483 -0.0723171745271422 0.6353897571754363 -0.0736214833699514 0.08086932471215295 0.01282373443283704
15750000000.0 0.07873183222475516 0.016171454018170228 0.6360572873734094 -0.07401705795967778 0.6360852500423625 -0.07397190066458878 0.07881511232381953 0.012783532337196006
16000000000.0 0.07887618365719026 0.014727398716292956 0.6349695447884378 -0.07602392128619469 0.635335769960267 -0.07552654586631519 0.07929496502257967 0.011645805042543847
16250000000.0 0.07909507294627735 0.013545164498712932 0.6345929710650674 -0.07703232026883976 0.6350246067319467 -0.07664111348437612 0.07992597927223456 0.013042296475503439
16500000000.0 0.07992292036123644 0.014586275007287177 0.6356771021712723 -0.07855760557633337 0.6355953424204591 -0.07894183665831894 0.08002607120398922 0.013212693414247512
16750000000.0 0.07822908040091393 0.015462908368598325 0.6342826255391909 -0.0785717536731575 0.6345803486680046 -0.07996664208438692 0.07846651229406025 0.013948308601594413
17000000000.0 0.0767092290681594 0.016169039944180355 0.633859399066901 -0.07988885730894503 0.6336983962335874 -0.08080115956387039 0.07905313180418544 0.013690171156025537
17250000000.0 0.07732212858830746 0.015833879594859174 0.6333744700904641 -0.08209394584034986 0.6337274891116988 -0.08177200384315578 0.07725340915480197 0.013015074722528136
17500000000.0 0.07876055445273294 0.015421730258932974 0.6333657324599955 -0.08223332695138436 0.633635851178321 -0.08232601832170201 0.07652419614473802 0.013293382835396536
17750000000.0 0.08165085374299857 0.013563864413424066 0.6339984808569371 -0.08424904220074672 0.6359570252464966 -0.08363019933241282 0.0785709188101816 0.013404215813967748
18000000000.0 0.0821934528547118 0.01656618063684084 0.6349940470404618 -0.08453557541391311 0.6370913891181386 -0.08480482037562352 0.07925268995647507 0.015685461733163528
18250000000.0 0.08036338869789716 0.01751855353143962 0.6341747448029755 -0.08594443713082443 0.6363365805337897 -0.08587180847867747 0.0801414074363749 0.017264313911578413
18500000000.0 0.08024225861998571 0.01962022885614994 0.6341964948396677 -0.08719664143460967 0.6356185997166399 -0.08740672478664534 0.07884118464884679 0.016787178771334815
18750000000.0 0.08167544559065863 0.018753220989181023 0.6340204969911454 -0.0883577276925099 0.6358165329999912 -0.0882786365279644 0.07990928777627933 0.016201096906193084
19000000000.0 0.08225037326797269 0.01938131454352926 0.6341060864524524 -0.08872105241985657 0.6365867079622473 -0.08869727536440737 0.07940937974891364 0.015040463676019604
19250000000.0 0.08329080467576193 0.01999022281367167 0.6341712717672421 -0.09029917774399157 0.6359171859483518 -0.09055577901667503 0.08170667764346173 0.015615112677453904
19500000000.0 0.08241072819942426 0.020469684878395324 0.6343315029017282 -0.09175300778961684 0.6357478520506632 -0.09152626660121663 0.08185397476493858 0.016884429767553878
19750000000.0 0.08182463887202734 0.019986834945696568 0.6330511472185194 -0.09205587860232878 0.6347445793535551 -0.09311325333381058 0.07980667198240385 0.016284160048119545
20000000000.0 0.08012114681081925 0.020772167392719122 0.6328715560008217 -0.09315841261481003 0.634779292538788 -0.09364773645246165 0.07812046037003602 0.017970749020239953
20250000000.0 0.08083279711409516 0.02077855045096272 0.6323832379033173 -0.0954472275696994 0.6342526056147703 -0.09522227854075958 0.07649995603460474 0.01785386120160222
20500000000.0 0.0825842081427862 0.022258449347650856 0.6331087683544853 -0.09595391590720159 0.6349411549845904 -0.09550783064691028 0.07853603512489235 0.018014490285437276
20750000000.0 0.08188458921724126 0.021549194633666162 0.632918955404559 -0.09695671832007535 0.6350728950719002 -0.09709935618947285 0.07913302285567284 0.01846271554866866
21000000000.0 0.08201440378681486 0.02367015006311564 0.6335992375306456 -0.09883551076283374 0.6358461525082341 -0.09837987492723982 0.07952769493230105 0.019617743082294168
21250000000.0 0.08327947608771098 0.024024127889644153 0.6328132851473838 -0.09947957260783118 0.6345346150356228 -0.10014299114561956 0.08120965194702372 0.020453631835590243
21500000000.0 0.08293504135516219 0.025552800580628983 0.6325496671820607 -0.10024459501290701 0.6348326048373268 -0.10142311864701574 0.08099628031326303 0.021924564728740402
21750000000.0 0.0852313922230984 0.025444332899795464 0.6311255188905325 -0.10183735100175854 0.6335240116641645 -0.10296083911368051 0.08208392948719466 0.02068914705729908
22000000000.0 0.08447311920775927 0.023142357716442224 0.6300844090340857 -0.1038814511396942 0.6329006837325031 -0.10360738191278554 0.08022225434718251 0.019639783436926843
22250000000.0 0.0844731026251456 0.022202318027708643 0.6314564516398318 -0.10597116656339425 0.6339993045530837 -0.10473321442583929 0.08116965921222732 0.019909350942896385
22500000000.0 0.08522716766129247 0.022867969737709132 0.6304487821100851 -0.10685498462554964 0.6325195850110573 -0.10667049262813054 0.08125440586187743 0.019245477462133707
22750000000.0 0.08616450054435475 0.02257712906702521 0.6305977944804504 -0.10742842302084328 0.6325124119763822 -0.10845025774620616 0.08040664056898093 0.02043845697471921
23000000000.0 0.08411457026544374 0.023906252191879324 0.6306987296432519 -0.10657889110674758 0.6328713087032234 -0.10730645823233109 0.08143952433689793 0.021091891117222088
23250000000.0 0.08592051682603792 0.02349396259143057 0.6308832477331079 -0.11014854059969503 0.6327594146064034 -0.11070938445820606 0.08101539714074413 0.021456445613914157
23500000000.0 0.08720512452239892 0.02344449810972639 0.6298275129296699 -0.1118926479111765 0.6326812607721837 -0.11132608742800065 0.08098713305664736 0.021413163265558744
23750000000.0 0.08628104121325565 0.02440563821349837 0.6294290014255426 -0.11192235500707999 0.6316096187792574 -0.1112311837007952 0.08260423135247018 0.022211787769266966
24000000000.0 0.08523101677945935 0.02455182909702843 0.6299233018691485 -0.11261351872442353 0.6323344541870526 -0.11303144142578612 0.08143908471352414 0.022225756030390936
24250000000.0 0.08544689599617972 0.026410360426377715 0.6305940334804094 -0.11425443485493231 0.6328069219692763 -0.11487400050010702 0.08161677040025785 0.02354654153306173
24500000000.0 0.08753169468476729 0.026112699973427404 0.6291864878957889 -0.11622093147256646 0.6308345269002575 -0.1164951075800559 0.08128880608257294 0.02298781796496713
24750000000.0 0.08847106459841683 0.024775174130283732 0.6281879029091944 -0.11769165584891468 0.6308553859530821 -0.11722548288063614 0.08249915921540743 0.022190840113360668
25000000000.0 0.08783698980060128 0.0239417042421877 0.6283637106742327 -0.11990374759450116 0.6307071710144802 -0.11892038891665795 0.08237337076609942 0.021264073098362854
25250000000.0 0.0901323956049628 0.02394119008158905 0.6265986955525481 -0.11977572001965149 0.628692773223459 -0.11943880881033653 0.08453562191940284 0.02271990128444227
25500000000.0 0.0890468307686747 0.02389709837911468 0.6264912516905478 -0.11989364199099654 0.6288039141613138 -0.12026598351972931 0.08538699754684934 0.022645247557782886
25750000000.0 0.08935552088150339 0.021851278182253894 0.6261855961570706 -0.1206757357746302 0.628271627128436 -0.12081997581451621 0.08470685302132228 0.021476580967878613
26000000000.0 0.08906907871491264 0.024226245585344763 0.6260438463447555 -0.12088419935078316 0.6285597804742078 -0.12029965604962717 0.08553637598349627 0.021200797810631576
26250000000.0 0.08963492655509187 0.022421609008451686 0.6262324628605564 -0.12315805105695024 0.6285569207961563 -0.12234752556891958 0.08403956256658787 0.02232692727096197
26500000000.0 0.08966861203484609 0.021065660588811812 0.6268164022120977 -0.12446824198141145 0.6290973217928426 -0.12417394654169646 0.08623605702582987 0.02138848020636397
26750000000.0 0.08832981928212745 0.02046198167432117 0.6268578387665881 -0.12539550552322548 0.6287792057333937 -0.12567581805574166 0.08355677293410778 0.023204939677091228
27000000000.0 0.08880647739270187 0.02078697122722161 0.625780402741421 -0.12639514160972543 0.6275997638322935 -0.12731991183993155 0.08387175650776689 0.022052455501960368
27250000000.0 0.09181993160910759 0.02028894718017859 0.6258291197990493 -0.12853782717807682 0.6284773986111407 -0.12851503448464138 0.08466761342074137 0.02284573667445019
27500000000.0 0.09116592239708739 0.02280272043996869 0.6250773092123951 -0.13099715480657587 0.627405725746495 -0.13011307729587143 0.08513678711818194 0.023724285034362344
27750000000.0 0.08886182080108462 0.02330172406338389 0.6241956914729161 -0.1319771317610066 0.6266377887740133 -0.13190466436792952 0.08343178575910502 0.023907573156262754
28000000000.0 0.09128169945486023 0.025095917283922024 0.625239360008011 -0.12906959555959613 0.6274114880530489 -0.13107401092190907 0.08654061810024642 0.02434778591276488
28250000000.0 0.09266722150232606 0.020615606293930677 0.624061170099861 -0.13433941881146091 0.6263399789233955 -0.134117380730078 0.08589348011633195 0.021961427000600067
28500000000.0 0.09137533545727747 0.024519735910274468 0.6234367840647431 -0.13369545409939468 0.6258600335427441 -0.13239016025873487 0.08696320028727725 0.02167665103426638
28750000000.0 0.09001580770196085 0.023058326785591592 0.6236799506483796 -0.13784022890225567 0.6268312755112134 -0.13528947493733143 0.08644029685702889 0.022030621645345347
29000000000.0 0.08888561767022427 0.024718941446422383 0.6228111203175141 -0.13808946089036991 0.6246846502125184 -0.1383046295856552 0.08746902462073518 0.02137771828897353
29250000000.0 0.08754682205387268 0.02373703593932997 0.6220918883094626 -0.13605503929882543 0.623965152115979 -0.13818277032353918 0.08556763648429118 0.022452341581362518
29500000000.0 0.08703404541242407 0.0232823251774235 0.6229687635101889 -0.13714973997476393 0.6255939108394817 -0.1370793994207656 0.0862889902132455 0.02242730433967628
29750000000.0 0.0843422679161047 0.024141202222945177 0.6212963829002441 -0.1394700229716556 0.6236261807790571 -0.1396028043416106 0.0853124866651927 0.02284259403024193
30000000000.0 0.08453850036488585 0.02480839202282586 0.6212483856699337 -0.1405537459123829 0.6237096915911623 -0.14010239851390516 0.08561597984310251 0.024014076439669296
30250000000.0 0.08837181245109309 0.023126093708467566 0.6238083614385588 -0.13986822706468438 0.6260011490299082 -0.14088374500044176 0.08523223667686072 0.025250364319027864
30500000000.0 0.0867559056768287 0.02398357241016009 0.6232913715949081 -0.13998164429642077 0.6247277974578528 -0.1419794822190266 0.08741376932358841 0.02552758933411355
30750000000.0 0.08697488662882462 0.021033406311769254 0.6231979358121472 -0.1412659808238114 0.6247136383718304 -0.14398686007019673 0.08660231438144365 0.024983691584760295
31000000000.0 0.08815162067747556 0.023450555795986865 0.6225340970099916 -0.14265646499841958 0.6234920161407329 -0.14784021740760905 0.08733760332234224 0.025731334691040737
31250000000.0 0.09097505805481923 0.024616175208129334 0.621041170374754 -0.14398807663639923 0.6220487585364878 -0.14810079972875526 0.08781149820282674 0.02588456254239473
31500000000.0 0.0925439947790782 0.02371727151719726 0.6204642640818253 -0.14320545656368394 0.6211632427433702 -0.14742579878774653 0.09060067159368267 0.02546435846871631
31750000000.0 0.08962211254761845 0.021213774738244005 0.6211046488367951 -0.14487636253164612 0.6226594088332317 -0.14833401655601605 0.08871096528787387 0.024789561021566042
32000000000.0 0.08988385798603393 0.023083194838959646 0.6215420242218836 -0.14461548096204693 0.622657687353046 -0.1463283770124858 0.08724202196060296 0.02399429193908055
32250000000.0 0.08935994659685172 0.022273236349793932 0.6223137797867834 -0.14821022859892355 0.6246959439329034 -0.14920923157448693 0.08717290863923649 0.02474029270210372
32500000000.0 0.08790200157417911 0.02231966889528788 0.6205852222941144 -0.1502604248576479 0.6229663836353069 -0.15294210991185336 0.08768228838878697 0.02489554739913815
32750000000.0 0.08964954421770503 0.023285586656993956 0.6199449798606794 -0.15050035335980402 0.6215658739487864 -0.15424431494438282 0.08725154320023033 0.024738954439661526
33000000000.0 0.08929949184017734 0.025507362257431783 0.620071161292027 -0.15171505288771095 0.6215307872029748 -0.15457650812433335 0.087700498878353 0.025021104334276175
33250000000.0 0.08786881577201701 0.02577887366716508 0.6194428592022447 -0.15253485828886737 0.6213599838283026 -0.154428872226417 0.08776479644547253 0.02533973826312817
33500000000.0 0.08879708731992539 0.025066493324485125 0.6202621084451058 -0.1523183605413977 0.6215232284260859 -0.15727947710493814 0.08785714499196644 0.026766508651225422
33750000000.0 0.08882423239585566 0.02509887936573726 0.6178794561999524 -0.15709379979400098 0.62022583952805 -0.1577232231315186 0.09040045563807272 0.026993638148553215
34000000000.0 0.08881741401656948 0.024363177922974943 0.617319898314101 -0.15677789063285194 0.617984487254404 -0.1582966735256702 0.08757601200725584 0.02650108215584749
34250000000.0 0.09146922326415255 0.02493059250842519 0.6163054286275654 -0.15885605770851102 0.6169675392797691 -0.1590983059183818 0.09039360708031534 0.026171122888799834
34500000000.0 0.08859210447518073 0.0242142268500121 0.6162967813521907 -0.15806834218159863 0.6163343466751006 -0.16151914378569435 0.08959019687466682 0.024066561817964717
34750000000.0 0.09035314284375028 0.02495780197986544 0.6171830288100912 -0.15753010260369826 0.6162276203994643 -0.16116284138007092 0.08989965093228675 0.024419935870182652
35000000000.0 0.0887571363309284 0.023504178088374916 0.6171439371291353 -0.15935624486237052 0.6164919061365643 -0.16432944459339469 0.08880516574036393 0.023913790434798705
35250000000.0 0.0884915703950239 0.025606496108095612 0.6173472433652328 -0.16310761055181333 0.6175386921194426 -0.16348649822798014 0.08741427790963302 0.02375206273384406
35500000000.0 0.08933577689719577 0.025856229021505278 0.6152043198143436 -0.16415428141297506 0.6148485215349667 -0.16411619200896857 0.08638999956739246 0.0254803187625768
35750000000.0 0.09054694485918988 0.02596510309500817 0.6164376054341775 -0.16620800462034266 0.6168014422153775 -0.16375971979959866 0.08815183970079535 0.026073531373566893
36000000000.0 0.09104236114347387 0.026587626394235227 0.6154179100807015 -0.16638251571710855 0.6157329071533933 -0.16679888316319094 0.08934597083675042 0.02739339477386821
36250000000.0 0.08908127834995784 0.024974384114830304 0.6146543141895492 -0.16850825302545105 0.6148747315012444 -0.17032067575053947 0.08970484477201204 0.025816420689736337
36500000000.0 0.0907013109974059 0.027337709139428727 0.6136681889582394 -0.16739267636590968 0.6133375916735161 -0.1697731704033197 0.0900439827761983 0.02608698736753338
36750000000.0 0.09149912392198309 0.026289827403309464 0.6138549959620352 -0.16825958188903536 0.6136857037410168 -0.17150832097029367 0.09009640647851508 0.024620499247324467
37000000000.0 0.09103289270382965 0.024908989894743012 0.6134866676375835 -0.16941576168983197 0.6132907715924407 -0.17135034446763975 0.09012749705708482 0.02532163774561153
37250000000.0 0.09048327781187994 0.024853900865813038 0.612664193720285 -0.17171797609260211 0.6133340161665631 -0.17152188508597718 0.09069415316358326 0.02452162502271269
37500000000.0 0.09210205797609793 0.02443253839755529 0.6124523372538578 -0.17208263895825932 0.6126985631537205 -0.1709609718366505 0.08852242939466846 0.02450566973685688
37750000000.0 0.0900458714783899 0.024747187485618383 0.612888347666975 -0.17436103853224336 0.6131359998632465 -0.1737766475746261 0.08948474967560704 0.023019220715566044
38000000000.0 0.09008394723770458 0.026004379794897347 0.6121354790237861 -0.17474620926206433 0.6122215280804119 -0.17518528574902062 0.08772778594033148 0.025969278559321827
38250000000.0 0.08964818143282557 0.024310660993823584 0.6116369953350718 -0.17467289724685015 0.6109543444385698 -0.17833014874820827 0.0875347758281405 0.02564774519755408
38500000000.0 0.08790558684877778 0.026328992431860283 0.6104995227931956 -0.17394498801431316 0.6091141979619443 -0.17866094437310487 0.08762318901631733 0.02686997902382258
38750000000.0 0.08881011928329853 0.026084046308724525 0.612223186372861 -0.17576266992029918 0.6105345019646209 -0.18126157115409083 0.08924209955868155 0.02664896556686919
39000000000.0 0.09002000673681879 0.02862362262501069 0.611996342176653 -0.17628528876116328 0.6099087277766426 -0.18333694604108153 0.08891240971512322 0.026530406898579748
39250000000.0 0.09189446393319502 0.028493546105910584 0.6100397973351648 -0.18035512390309355 0.6101681260006216 -0.1811254648952719 0.08922600263403808 0.027397287909398164
39500000000.0 0.09025603242721535 0.02577135670230233 0.6094117751731998 -0.18091954615224862 0.6093387866675155 -0.18211786938428715 0.0903670903970237 0.025596404371541412
39750000000.0 0.08982371070951521 0.026280472722680005 0.6087301855474985 -0.18485406896520212 0.6096443706657751 -0.18250867824808065 0.0890588718402452 0.02755713038841744
40000000000.0 0.09001660157222749 0.02688807400993192 0.6078908228847302 -0.18326889107319944 0.6091553724326072 -0.18220717590789584 0.09018246818704152 0.02610343038487036
40250000000.0 0.08960240141892328 0.02726122342435522 0.6090993409083121 -0.18213089882808361 0.608458598718979 -0.18560833460978773 0.08939386292976513 0.026329252547007083
40500000000.0 0.08979686132771225 0.027229262673754855 0.6103798756120722 -0.18392688777733399 0.6092091228754303 -0.18787511566192944 0.08953795345664921 0.026603517122787072
40750000000.0 0.08988653191356734 0.028518483116383934 0.6073262806334663 -0.18488001980321186 0.6066496887937184 -0.18889754657823768 0.08860331230892679 0.026879266277432243
41000000000.0 0.08873364764183464 0.026839817216990053 0.6072107668087726 -0.18672195726370827 0.6071164810964447 -0.18818671010974092 0.08759376585147637 0.02621821780507199
41250000000.0 0.08860034427115296 0.028323389185088754 0.6075120758020696 -0.18774439061402612 0.6078901251525963 -0.18855466293258405 0.08757187911823013 0.026470499766019943
41500000000.0 0.08908780177256807 0.02982507521942445 0.6077753750759962 -0.18899242713467282 0.6080359636782035 -0.18970166697014568 0.08815211856011217 0.029268306912260077
41750000000.0 0.08930795361981249 0.03003244743931068 0.607619715813264 -0.18993489869739552 0.6071572329987079 -0.19268360317662592 0.08898563352846764 0.02970772699651776
42000000000.0 0.089947128293317 0.031620218690885334 0.6071853848048056 -0.18972650829386817 0.6067277904480435 -0.19377190073428624 0.08893006679943576 0.029040658253024047
42250000000.0 0.08968503982295992 0.03206477733880269 0.6064096717807872 -0.19159138717423946 0.6060700362637635 -0.19530273170092174 0.08995952236910577 0.029573441995148716
42500000000.0 0.09268770752628513 0.032447816744681654 0.60606493416784 -0.19177915611401034 0.6057577518471577 -0.19502055094584136 0.09042060319807589 0.0294115485474864
42750000000.0 0.09220284710110417 0.03068530957197698 0.60718540561396 -0.19311204822630948 0.6067090142644384 -0.19587710241723252 0.09007084226580471 0.029220549828334507
43000000000.0 0.091286518995058 0.030823580491922513 0.6059256913066468 -0.1947432962277763 0.6060337896325582 -0.19743232557788973 0.09058161210768259 0.030005187263871386
43250000000.0 0.0920026648913846 0.030119637796429198 0.6050310985139234 -0.1966141721243579 0.6053208653146486 -0.1983947094591882 0.09044763154235691 0.02975193247795717
43500000000.0 0.09085841855310958 0.031655800992649745 0.604548507587818 -0.19786329469173528 0.6050276086911183 -0.19867997637455523 0.09168569200123804 0.030376794026643908
43750000000.0 0.09183594401768302 0.032027732895058246 0.6038432211685758 -0.1993832579980947 0.604151723393661 -0.20002090186190438 0.09144387191086538 0.029648777053988412
44000000000.0 0.09193919263734018 0.03264255476949543 0.6041216543476037 -0.19800757063523503 0.604592057491063 -0.19950352568628693 0.09033416619218622 0.029492626421549553
44250000000.0 0.09219162691646231 0.032706414573170174 0.6041740503378529 -0.20057074833376137 0.6038615812963876 -0.20268269302767125 0.08891532671981126 0.030316722309711636
44500000000.0 0.09317205181288897 0.03263461627847451 0.6031662038937565 -0.2014239712594731 0.6027379363578039 -0.20402512703874948 0.09057650166111846 0.030665345594889228
44750000000.0 0.09337328192969187 0.03228033576580196 0.6040936478920325 -0.20091920756612763 0.6030503623884425 -0.20520265938116294 0.09082967991971011 0.030832856598460936
45000000000.0 0.09286425442584786 0.03250723320350605 0.6029746700601029 -0.20212167767169356 0.6019053731757199 -0.2071683364192428 0.09133392283004181 0.029778975993381442
45250000000.0 0.09434284136546407 0.03293131488111774 0.6025279094219377 -0.20368727465341208 0.60214782100924 -0.20724362681470593 0.09263769261038166 0.03057087733954105
45500000000.0 0.09393414866827406 0.03276777518561187 0.6020306825017797 -0.20543755889425194 0.6021611444427861 -0.20763002979472775 0.09112186788306681 0.03079803724441857
45750000000.0 0.0945096840579462 0.032923982993316225 0.6008589757966879 -0.20697219568777558 0.6010868295334062 -0.20850214299643277 0.09186328314430257 0.03147349555267386
46000000000.0 0.09284220683959973 0.032821887272035236 0.6010930472035155 -0.20767785517679152 0.6011082770277787 -0.20949046013343584 0.0916751718225138 0.0320502535660785
46250000000.0 0.09354937887291963 0.03327378202957301 0.6004530391986498 -0.2092311739220502 0.6010485778233746 -0.20989660243071073 0.09268117289197488 0.031294152501989685
46500000000.0 0.09470455945417136 0.03387266674801426 0.5994737294077305 -0.2105037957452474 0.6002539822171604 -0.2112850892680055 0.09126222077331266 0.03163857049424635
46750000000.0 0.09267522484853341 0.03420459998281916 0.6000478739148519 -0.21199921422695925 0.6007907325987633 -0.2129836336342134 0.09092524757117988 0.03133228163296669
47000000000.0 0.09343981615075521 0.03369766803777515 0.5991958937359265 -0.21313549325955472 0.6000741732644255 -0.21404166487800375 0.09116551335860816 0.030542653766880857
47250000000.0 0.09434638048917349 0.0339248408395939 0.5989459326286134 -0.21411619172408086 0.599895990627333 -0.21392651675897914 0.09170206092082214 0.031278084352034705
47500000000.0 0.09472517985666924 0.03441468310263059 0.5982952864793628 -0.21643844087351316 0.5995576922181073 -0.21568048103914714 0.09231902850899201 0.03258003176785156
47750000000.0 0.0948417437639333 0.03494327879807774 0.5978850765664973 -0.21669813233603719 0.5985353360013149 -0.21709172063969734 0.09247343849145309 0.03309871927610816
48000000000.0 0.09613087168824153 0.034653618600467916 0.5981620287862776 -0.21715402767385988 0.5982981159046231 -0.2186368133733319 0.09258851369118203 0.033024756385730665
48250000000.0 0.09520753287755095 0.035196967423320805 0.5973591647061082 -0.21762128846258783 0.5975532219964371 -0.2199598724338631 0.09169332307070696 0.03255028175129182
48500000000.0 0.09503002043977869 0.03544870412478847 0.5966995348510385 -0.22043238872054258 0.5969918100885181 -0.2221212328837549 0.09201886865224014 0.03352024467190177
48750000000.0 0.09602493214589249 0.03548592346380725 0.5953629475120154 -0.22132161406396006 0.5959619733847794 -0.22197845200363897 0.09311066143836305 0.03339330039247268
49000000000.0 0.09608607338936023 0.03397406871080349 0.5952684466914807 -0.22316334761999237 0.5962035471560864 -0.22235403602254508 0.09342284298314232 0.03297198702155684
49250000000.0 0.09791284278274297 0.0347549044810671 0.5943758331040047 -0.22429728092773524 0.5952381125591689 -0.2240351349625642 0.09355480249716724 0.032636441928290974
49500000000.0 0.0958752381810011 0.035040785885644916 0.594975693269257 -0.22343461003382553 0.5945435602471161 -0.2264334578034584 0.09364704521000294 0.032586693479185115
49750000000.0 0.09711173629063728 0.03636336195920749 0.5953321280769568 -0.2252626713844756 0.5953605349961426 -0.22778503201804187 0.0946681286299726 0.033201414096634144
50000000000.0 0.09757625522513882 0.034832929070504184 0.594496145964606 -0.22706114021665066 0.5953596337773235 -0.2279700699574959 0.09341246529945128 0.03283607295407101
50250000000.0 0.09736507828545411 0.03529300697594447 0.5939693954542755 -0.22932402465191146 0.5947765168655675 -0.2308848375150573 0.09356956686225557 0.03374950052942322
50500000000.0 0.09922717129102412 0.0354845719354503 0.5921217426982829 -0.23042124377464784 0.5928137037031721 -0.23205678303914923 0.09416148598792323 0.03424122986411853
50750000000.0 0.09857451362191107 0.03642976260836232 0.5918807932492751 -0.23196646272251836 0.5927196010214044 -0.23305027134605283 0.09479838828746634 0.03456602994548656
51000000000.0 0.09860578403001123 0.03493017140929616 0.5901409368961108 -0.23381551284136268 0.5913662092210391 -0.23395617126632512 0.09431146925525004 0.03350122181244067
51250000000.0 0.09986272985251392 0.03500899457446257 0.5890186653978223 -0.2339509421232676 0.5901575271292127 -0.23327115726976752 0.09554668152665653 0.03299908168415147
51500000000.0 0.09969202581827181 0.032986378100144355 0.5882581633553582 -0.23397228410593088 0.5895796582679568 -0.23306329703781506 0.09523270935091098 0.03240037993118284
51750000000.0 0.09929445214427039 0.03503690678805948 0.5890207674589647 -0.23510550609979308 0.5908593054927191 -0.2342411066121465 0.09604474385511962 0.03349593388611078
52000000000.0 0.0992230771240609 0.03479605533423649 0.5873132539797297 -0.23657678674445434 0.5884151433786857 -0.23662768734751752 0.09691141674139211 0.03247438056367645
52250000000.0 0.10058934145952324 0.03422874576879561 0.5879073615678266 -0.2348225332257724 0.5878958090851967 -0.23723109438762918 0.09695192214598347 0.031412314238639216
52500000000.0 0.10010691727208271 0.03364094593666058 0.5881299935126764 -0.23450579837946253 0.5876693854541714 -0.23811866770574766 0.09505313522061021 0.03139535844438156
52750000000.0 0.09835458410923818 0.03268234387009569 0.58818438021003 -0.2357586907735312 0.5878131405799504 -0.23894661171896805 0.09351531183294264 0.031760269510521015
53000000000.0 0.09825912445679531 0.03375740110140397 0.5884113135723607 -0.23751489014281216 0.5889799381267883 -0.23921179679894367 0.09411050535820022 0.03182085757568477
53250000000.0 0.0984818913563728 0.0338329462739671 0.5884542632611196 -0.2404112042381657 0.5891287667551869 -0.24106119552819524 0.09418052684760918 0.0329064094441735
53500000000.0 0.09835619227182008 0.03485970043848671 0.5876581586212285 -0.2426463833102632 0.5886819329135901 -0.2427735790426966 0.09434125886466181 0.03363168617194006
53750000000.0 0.09802549627281097 0.03613913201875423 0.5869343070931695 -0.24347480652411943 0.5878772463165146 -0.2434974870884505 0.09483634883727088 0.034007571075550434
54000000000.0 0.10014477850758355 0.03608859830624754 0.5862015633216215 -0.24405806066507246 0.5867641859478344 -0.24506862386503758 0.0957070623351297 0.03435376631338898
54250000000.0 0.10147339160260042 0.035674312453324114 0.58467641266392 -0.24734242381138657 0.5875487718695519 -0.24624748050736203 0.09681212391722709 0.03399017975363969
54500000000.0 0.10122162184542764 0.035506331040958954 0.5839390360320739 -0.24804133875370413 0.5861354775464388 -0.2469573470842411 0.09754616149279756 0.03383418392161317
54750000000.0 0.10143481479746505 0.03470360938721362 0.5841318163213629 -0.2489723431008987 0.585395379795383 -0.2488186261894254 0.09615245274123442 0.03288553867155616
55000000000.0 0.10203517317958101 0.034161136961577354 0.5830822625386389 -0.24978707394086463 0.5845130497667261 -0.24979389193852564 0.09667893682532024 0.032776831012717764
55250000000.0 0.10122942294280267 0.033083744899351154 0.5824460538326743 -0.2505032531157345 0.5842117866543354 -0.2495035772481289 0.09662837958174622 0.03266094838136992
55500000000.0 0.0996741877029997 0.0341353977667767 0.5827683343009742 -0.25082652470874506 0.5839875549802643 -0.25124910018275787 0.09557739860539585 0.032597134208925245
55750000000.0 0.09871419694889862 0.035101332412015844 0.5816651130710606 -0.2531842088864423 0.5828907446852452 -0.2513997094916844 0.09481766950362053 0.03281782615829625
56000000000.0 0.10004938503214184 0.03483369066712443 0.5815994977929612 -0.25484462769034644 0.5825653261722125 -0.2533279353551459 0.09496144117529633 0.033167393579481154
56250000000.0 0.10038633899695633 0.035643656743932516 0.5813875606423662 -0.2551953031286964 0.5827228436132048 -0.25554368759176704 0.09499833671005409 0.03481493351294395
56500000000.0 0.1000126259316302 0.03591762134628696 0.5799321650206294 -0.2563098366368199 0.5810490724685723 -0.2565189028842522 0.09510670592392119 0.03577697019288
56750000000.0 0.10128496087486086 0.03664422163507098 0.5801013970576887 -0.25474758285216803 0.5797844703355222 -0.25869315126674614 0.0969731066383205 0.035088741725681126
57000000000.0 0.10240365568548891 0.036601618592402116 0.5797046867626742 -0.25586209747700134 0.5812420478637401 -0.2570519782537604 0.09790944318903536 0.03503558510395972
57250000000.0 0.10196271263404655 0.037924737768866304 0.5779403997694472 -0.25813898558359905 0.5800227018731372 -0.25918770542927205 0.09752442575100076 0.03574839068187527
57500000000.0 0.1010368365668572 0.03820765783992049 0.5774312770166009 -0.25797382735040447 0.5793262964038601 -0.258011040373834 0.09580520925413857 0.03421901752376478
57750000000.0 0.1017176924229479 0.036805698938321633 0.5762622684561508 -0.2583297213709191 0.5772295158000205 -0.25927750020752555 0.09720531001617756 0.03401867107355051
58000000000.0 0.10171162230379313 0.03616068363432791 0.576600624622207 -0.2578415954727728 0.5774321868689374 -0.26099897633974833 0.09743806240017086 0.033993172651424895
58250000000.0 0.10196657887564273 0.03557343513302448 0.5778206192865806 -0.2591609870552261 0.5789211811680379 -0.26241752783158445 0.09669081582133979 0.03439646781428109
58500000000.0 0.10149935090918695 0.03595449942933668 0.5784148450123605 -0.2582452072598177 0.5777430668006744 -0.2655128547742616 0.096310002954865 0.03426861515926504
58750000000.0 0.10209867670767775 0.036173925341065435 0.575766966464624 -0.2619049666699572 0.5769832200963126 -0.2650733201152492 0.0965830797818449 0.035886485515458554
59000000000.0 0.10263492874390617 0.0361896442258063 0.5754363667917313 -0.26215028880818586 0.5757339095338263 -0.26563094490881367 0.09743680270694315 0.035216265711953736
59250000000.0 0.10208457156881429 0.036906232340608004 0.5755994866400383 -0.2620926736149001 0.5754630177105611 -0.26696053327873887 0.0969054008277006 0.03481432351966953
59500000000.0 0.10280126310604969 0.035656114284407125 0.574030176627299 -0.26623444130002233 0.5761563349519796 -0.2655248923829938 0.09679952879679045 0.03536007479772107
59750000000.0 0.10186828345373292 0.03612987739959705 0.5734443305743747 -0.2672988021130847 0.5767600657080717 -0.26590263439652645 0.09727986618950882 0.03617630953534373
60000000000.0 0.10274306446860026 0.03676791364599583 0.5729054966655108 -0.2689362354844404 0.5763825571894143 -0.2670015714263799 0.0972647734610222 0.0364021643135602
60250000000.0 0.10266338119149904 0.03634550066473249 0.5725637203992041 -0.2702558636087225 0.5758133697663356 -0.27007914082532203 0.097615557970857 0.03596029052281285
60500000000.0 0.10276271583856474 0.03629165212379936 0.5700143513421468 -0.2743469878545472 0.5762072861564345 -0.2671002739179436 0.09786143629101486 0.03567482889447461
60750000000.0 0.10346815251231188 0.035882622224893246 0.5704523473076416 -0.27328822548987436 0.5754117181914941 -0.2678924092098787 0.09763750601698937 0.0349369895461212
61000000000.0 0.10301875291655709 0.03543443623219505 0.5710728358040327 -0.27428666379171107 0.5757702541029079 -0.27026373001898335 0.09766189796106282 0.036058302684249734
61250000000.0 0.10262014614089239 0.03658624765306353 0.5697838520030585 -0.27585305183896347 0.5752635392911669 -0.2713965167063576 0.09667386845592575 0.03552102863397513
61500000000.0 0.1036820062891531 0.03643046639511736 0.5694673418971475 -0.2789895825611505 0.5754594154232744 -0.27199793107829084 0.09742464837518615 0.03664116861388349
61750000000.0 0.10200975868746515 0.03588845326671549 0.5676713419138976 -0.28160103640897965 0.5750199739658816 -0.27162348187941265 0.09707293118274128 0.0370742421264597
62000000000.0 0.10196904195053792 0.03709724423594772 0.5678057338976373 -0.2823035583237238 0.5748213144282618 -0.2726913336621984 0.0976574073554881 0.03725813014653746
62250000000.0 0.1016696463082269 0.038036068069543974 0.5686822167353369 -0.28022552166466785 0.5722445609535172 -0.2757260582169062 0.09702409779737302 0.03770002066494752
62500000000.0 0.10239262237421345 0.03743682119799704 0.5701440652751866 -0.27869591676821104 0.5715666579282749 -0.2795441104081599 0.09739345674528671 0.03819901137808629
62750000000.0 0.10305683652986743 0.03817179415205919 0.5694360724545738 -0.2808633198365639 0.5711702834174461 -0.28158204126534053 0.09875413274134912 0.03847458145442854
63000000000.0 0.10245038701906657 0.03794899416978276 0.5669822742051658 -0.2838197443444627 0.5697768226103367 -0.28155158546810316 0.09883974289120108 0.038067206718864204
63250000000.0 0.10331708553786458 0.038969542964783166 0.5655879052888086 -0.2863932845749026 0.5697433086030833 -0.28140688484642645 0.09951351230372035 0.03755985044886222
63500000000.0 0.10500480828202982 0.03770599586363661 0.5633723735282841 -0.2875927941334751 0.5686966138575075 -0.2811050677425926 0.09960698137050444 0.03735370803005934
63750000000.0 0.1039148329165648 0.03792401625093569 0.563863447597539 -0.2859110177101663 0.5673847598141021 -0.28270779819057074 0.09887015997289249 0.03734079917195884
64000000000.0 0.10335969836411371 0.038075538363025296 0.5643957513285153 -0.285548717778337 0.5668494875209058 -0.2847241249088646 0.09875250398839477 0.03812631109463288
64250000000.0 0.10334232814784054 0.03859372864674305 0.5642708938209944 -0.28700572850973083 0.5677954832873373 -0.28544853110181234 0.09902351002409532 0.03862056883237176
64500000000.0 0.10414281940615899 0.037706089318488026 0.5621998020382265 -0.2898101273233193 0.5668821557364787 -0.28605201373246886 0.09985870114499781 0.03793481841484045
64750000000.0 0.10296273507932807 0.0379040737755211 0.5606965083772224 -0.290904749183715 0.5666939673732829 -0.2841979468227456 0.09933276529750439 0.03781470329898941
65000000000.0 0.10306990689865157 0.03889779759434708 0.5617442737474623 -0.2904545654866741 0.5662589554561029 -0.2858597333242851 0.09864299447711122 0.038370702824554834
65250000000.0 0.10253215017822448 0.03849649940029205 0.5624920051643509 -0.2914009146566658 0.566092790969622 -0.28895784595918367 0.09869193218890177 0.03916801210638599
65500000000.0 0.10299410919877579 0.039369076756534435 0.5613557902731897 -0.2934612583144359 0.5654274626292392 -0.290800277124588 0.09999990468812754 0.03967709328455347
65750000000.0 0.10454480165828084 0.03880883657089292 0.5599044569749507 -0.2932473539364974 0.5638335623191463 -0.2919436858148304 0.1015889225679573 0.039126773872269635
66000000000.0 0.10502492717457243 0.0406260152877026 0.559872809941235 -0.29458002708176756 0.5632539726725959 -0.2929846033640887 0.1005679956310206 0.03932885245525801
66250000000.0 0.1043265502016984 0.04038600100483592 0.5585508864193975 -0.29557818378832923 0.5633975539195241 -0.29282238147023754 0.10086908352887748 0.039091605284500015
66500000000.0 0.10416412446588366 0.0396901440723817 0.5568717923418114 -0.29740980967443464 0.5632032490669021 -0.29173003514045487 0.10068942965101631 0.039359666223624384
66750000000.0 0.10344618690501166 0.04059716590333385 0.5560116802750353 -0.29989190017421125 0.5636168030651914 -0.2905678156708333 0.1010124038347337 0.03811750458001818
67000000000.0 0.10405027348072968 0.040917442167707874 0.5550877225966303 -0.30284833396436045 0.5643223701897 -0.2907544000251452 0.0998561812126588 0.03940050383525665
67250000000.0 0.10484401424399101 0.04086273201846264 0.5553663855975243 -0.3029415491370611 0.5644170791755755 -0.2919347630754593 0.10040331472059875 0.039625820473711826
67500000000.0 0.10514598044172419 0.04209028262464179 0.5554710519848807 -0.30411922514564294 0.563528593820757 -0.2939347048460852 0.10054842309863353 0.0404664016219141
67750000000.0 0.1048850756780633 0.04097775083123069 0.5549119139054887 -0.30375571237690735 0.5625196033385934 -0.2959676462107833 0.10102687840237792 0.04022923854158805
68000000000.0 0.10585417919431658 0.04303874671005278 0.5545686175908564 -0.30447775993452286 0.5616635248445814 -0.29767325853565263 0.10141820128735726 0.04076060561048325
68250000000.0 0.10548135835305933 0.04321795941996766 0.5549476723927312 -0.3062980239737124 0.5619960764909613 -0.30039241175856246 0.10153871867027714 0.041151771965742184
68500000000.0 0.10589174054436441 0.043716441154586276 0.5536257383950575 -0.30688796630519316 0.5593603612589333 -0.3021093389418538 0.10177103745699219 0.04093387677374372
68750000000.0 0.10615914066411906 0.043558542710089784 0.5522277503359514 -0.3085574173854184 0.5592812779474955 -0.30173463384093246 0.10214825406925536 0.04175922462292533
69000000000.0 0.10706566583446292 0.04388743290012857 0.5498333318041828 -0.31093814477257775 0.5581389026774627 -0.3021042447707643 0.1026563222263686 0.041828264051030614
69250000000.0 0.1078118961329476 0.044248212620608234 0.5487334260428133 -0.31160378922853305 0.5573383371859765 -0.301828717246457 0.10356491821724356 0.041760324551940044
69500000000.0 0.10865700711909088 0.04467703604338952 0.5478246255896086 -0.3119420765405256 0.556548955744972 -0.30253750453677797 0.10401869557002698 0.04095345560118108
69750000000.0 0.11018514371682676 0.044128756666077434 0.5476681967130694 -0.3112264388871941 0.5559350619210459 -0.30380833124867646 0.10409150575904824 0.041110912785395755
70000000000.0 0.10975135856554406 0.043316376896158325 0.5481367152968047 -0.3112511149025701 0.5550616703796388 -0.3053387966093971 0.10358753098253369 0.04062872094383623
70250000000.0 0.11035097199872382 0.043171845861454713 0.548140577878682 -0.31116870327844004 0.5539831978193361 -0.30786553541866496 0.10363544269627055 0.040459125549185224
70500000000.0 0.10996824214544483 0.04167496974727291 0.5481361257079231 -0.3106910466190654 0.5533066717976027 -0.3078694836779027 0.10285669771020498 0.04049298406624152
70750000000.0 0.10886098819624271 0.04331278741843572 0.5475194794393368 -0.3141970057031851 0.5526151315724207 -0.3086099880034621 0.103041378047931 0.040978082852123884
71000000000.0 0.10975110859037306 0.043082553264112006 0.5457316582407424 -0.31668517068253443 0.550848601488309 -0.30837873580877695 0.10338532313171721 0.04188043817043132
71250000000.0 0.10887924079989535 0.04392234451105606 0.5455656426535843 -0.31707230180747203 0.5518552346868438 -0.30929239527207364 0.10328102249545199 0.04169879817439645
71500000000.0 0.11064057991365889 0.04511048730327838 0.5446561605583687 -0.3179261172305934 0.5493927023239737 -0.31110743604303104 0.10315916593638214 0.041435487597873535
71750000000.0 0.11070279911233838 0.04401033539058661 0.5448453041286271 -0.31762915179289714 0.5497187055777337 -0.3121376799542706 0.1031922153738431 0.04143908976748973
72000000000.0 0.11185656223912788 0.04482287336660553 0.5444550558975567 -0.3193870974567937 0.5476790283524037 -0.3146024919491896 0.10346763537927964 0.04236605114240649
72250000000.0 0.11190040092899337 0.0439047889784187 0.5442983480185258 -0.32053612710126644 0.5480720061652945 -0.3151921043992954 0.1031454638694625 0.04277530581482554
72500000000.0 0.11269954012676618 0.04399576071936007 0.5423608736812195 -0.320954861998725 0.5459668809942402 -0.3152049445617454 0.10339502522430763 0.042689661239148025
72750000000.0 0.11370212856482308 0.04313588554207237 0.5412315126928894 -0.3233405375011664 0.5461506321684898 -0.31553664981687807 0.1043448111872235 0.0421913064118805
73000000000.0 0.11432519104061749 0.04194565664200777 0.5391343697440224 -0.322994266811121 0.5453463054752382 -0.31451560243934307 0.1035571393482021 0.04120969019961365
73250000000.0 0.11368357417029569 0.04097950874310421 0.5396956317159958 -0.32418826232465214 0.5450328514129373 -0.3155447194611361 0.10467213188910822 0.04121882356938195
73500000000.0 0.1132609002704556 0.04162930214369152 0.5397889733519553 -0.32361213229304286 0.5448294973807107 -0.31608235772949933 0.10335125657045528 0.04043885386317071
73750000000.0 0.11277951022691389 0.040987194537693256 0.5407486250835376 -0.3244438008367252 0.5441357893839575 -0.3194424924488899 0.10283349130644986 0.04077804531468515
74000000000.0 0.11100043232042515 0.0417334403094841 0.541226091569522 -0.32421849761694144 0.5432793599147421 -0.32185566021577783 0.10296740712381357 0.04124362790806786
74250000000.0 0.11206043491590653 0.04266408447741383 0.5411546003150751 -0.32413229478359024 0.5425895537569838 -0.32346573165622855 0.102610409357069 0.041145821285384444
74500000000.0 0.11254678654077908 0.04232170923398748 0.5408917526053088 -0.3266305162750109 0.5426198217254504 -0.3250261618120712 0.10305366150965212 0.04185244783335171
74750000000.0 0.11215435748295505 0.041788660956034195 0.5378949049347186 -0.32925411137440397 0.5416329136847498 -0.324616526741743 0.10298124341619856 0.042164607333882914
75000000000.0 0.11251764918057593 0.042476897119223235 0.5370716036934206 -0.3312858770346489 0.5426792219918669 -0.32344572448683756 0.10283418993807741 0.041702931505001
75250000000.0 0.11231677039846995 0.041451658182164286 0.535686914404179 -0.33364326594586935 0.54159122064522 -0.3243646784805838 0.10292322585477562 0.04258022174971185
75500000000.0 0.11312985160834886 0.041482212004008645 0.5351364428875458 -0.3328513929612433 0.5409838391862887 -0.3253986126820019 0.10305422204732298 0.041841404648871594
75750000000.0 0.11287608142211561 0.04133585367154164 0.535032989657132 -0.3329890012082279 0.5393145482257842 -0.3277805032940656 0.1038170238827757 0.042057346419756066
76000000000.0 0.11268850353475905 0.041372220150555084 0.53480396803359 -0.3332729372486081 0.5385786560363796 -0.3286615054249666 0.10354440832630123 0.04190302740405967
76250000000.0 0.11257417730250459 0.04113244098108316 0.5340164873742919 -0.33510317522440014 0.5389560353804793 -0.3295547551597598 0.10384151622873843 0.041595798397554534
76500000000.0 0.11261509020119702 0.04101169660622891 0.5333349211175857 -0.335064328748944 0.5380516667553792 -0.33039744688157247 0.10284474845206637 0.0419145445123199
76750000000.0 0.11196263719820493 0.04154635572245291 0.5332387817529389 -0.33551899054586243 0.5373252432403816 -0.3308986499225435 0.10320909082262876 0.04230140045918644
77000000000.0 0.11227247559636937 0.041636953367280786 0.5328840102584624 -0.3365280490049828 0.5369849466638461 -0.33203523365100884 0.10374924823029914 0.042673218186606285
77250000000.0 0.1134315873582131 0.041768097472911964 0.5319582423045741 -0.3384205010974143 0.5355606163554806 -0.3342731693091312 0.1041022586739707 0.042404376891488994
77500000000.0 0.11247432269313472 0.041198926335994354 0.5312568421947333 -0.33915101258473307 0.5356907902835172 -0.3356531203932771 0.10362778975711574 0.04266000367049203
77750000000.0 0.11200306581470044 0.04106159962923135 0.5313242934237489 -0.337793786786757 0.5341265706070965 -0.3356329696953275 0.10371132439746301 0.042010385264522984
78000000000.0 0.11215757344910265 0.04187746634201604 0.5308070078441138 -0.34078668750035296 0.5348164441555803 -0.3365427196779056 0.10376353189622152 0.04290414873300751
78250000000.0 0.1124295353196232 0.04241708028115609 0.5294669544949377 -0.3425375351021458 0.5341490382350274 -0.3369227669402769 0.10418343912165168 0.0422465713216192
78500000000.0 0.11272554794329454 0.04100791564215055 0.5290092023773793 -0.3422033916990439 0.532692119041669 -0.3389580190244648 0.10455434377342594 0.042924094417653165
78750000000.0 0.1127522843089671 0.04178191253491268 0.5300492846993263 -0.34061603364734966 0.5303892972106641 -0.34209599149597386 0.10367609001203074 0.04250422056657642
79000000000.0 0.11351456187952086 0.04161959127089405 0.5300003466875692 -0.3391133807272757 0.5288177595478147 -0.3434344382205573 0.10340880207387873 0.04347653608207295
79250000000.0 0.11256285196421403 0.04177790484724359 0.5302059556403002 -0.3399027037692003 0.5279364250467534 -0.345094324571224 0.1048550920702263 0.04373726045979158
79500000000.0 0.1106693557287323 0.04272337057464899 0.5307967608778583 -0.34100470460014315 0.5286440177033509 -0.3461410517485299 0.1041762465033777 0.043904283507128467
79750000000.0 0.11266797858523951 0.04399668244071105 0.5295756536642054 -0.3443667660922354 0.5291133606481971 -0.345121560994334 0.10487296395556611 0.0440843834502974
80000000000.0 0.11257766626856558 0.04330630908619139 0.5283878363053756 -0.346583739591885 0.529991330041308 -0.3451430497075844 0.10495896635828804 0.04435504709040947
80250000000.0 0.11271056535845063 0.04391135857147971 0.525305659575024 -0.3522442874077318 0.5319928145032058 -0.3416279895939809 0.10480954164715248 0.045289005733170046
80500000000.0 0.11243847146968416 0.043467989069904595 0.5230377692882818 -0.3543405973405373 0.5323786966326917 -0.3415019954726224 0.1057970924555931 0.043894174983211943
80750000000.0 0.11323892789869894 0.04277124370601954 0.5228046170570445 -0.3553011276512027 0.5324427289041962 -0.3423182485394709 0.10481494873100161 0.044582456699945365
81000000000.0 0.1127692735047748 0.04250111976209246 0.521855993231343 -0.3541436665870116 0.5312274789331406 -0.3433407099353374 0.10532897217231538 0.04387033679648221
81250000000.0 0.11134148917256617 0.0444568508516557 0.5225308777476985 -0.3548574757352946 0.5308255375629487 -0.34588125299569084 0.10482824468186801 0.04476073711982312
81500000000.0 0.11206818932286933 0.045524632894577394 0.5230267599991228 -0.3546906097128501 0.5285333037045495 -0.3487968888367356 0.10432795287432516 0.045966110128568605
81750000000.0 0.11272338378293534 0.04602902344185594 0.5228354695566846 -0.35440903938630475 0.527076061171054 -0.3521660585848878 0.10487849598819043 0.04769467597797655
82000000000.0 0.1141425009405111 0.04639419007929194 0.5226829848702338 -0.3536350860655737 0.5258452051693744 -0.35224153043714096 0.10573445024104353 0.04683641596180528
82250000000.0 0.11380954578772151 0.04671600097732279 0.5213108753144421 -0.3558081286036169 0.5262188150317307 -0.35269054657348015 0.10782082392480591 0.04767547994213395
82500000000.0 0.11438509381179505 0.046744105255174445 0.5191761508447014 -0.35717113168839176 0.5269205003061134 -0.3508396058729761 0.10716891846155896 0.04743357035052005
82750000000.0 0.11491496819948933 0.045713021376473775 0.5172564538648776 -0.3605735440655405 0.528437866526689 -0.35127011841856054 0.10716214107538012 0.04744767592919684
83000000000.0 0.11481858427696551 0.04635791667880255 0.5162822453683187 -0.3623235469333014 0.5275567457565273 -0.352858910290248 0.10773415310498502 0.046234662492369086
83250000000.0 0.11541217994607421 0.047432863772828154 0.5159838932127262 -0.3626067477334828 0.5267936028964595 -0.3537954573653532 0.10847848073267091 0.04631043777051795
83500000000.0 0.11602710604632294 0.04639432109549734 0.5164196286295378 -0.3629287556368435 0.52514240986355 -0.3557365506667329 0.1084945481136369 0.046923086930609204
83750000000.0 0.11528309181725074 0.046401891355253785 0.5169915215821389 -0.36353020756201715 0.5238082298678514 -0.35799405508512394 0.10898541420732061 0.04757468604620549
84000000000.0 0.11547551978953269 0.04680548208652055 0.5156817331737195 -0.36246831265453666 0.52175717677059 -0.36006068813618985 0.10845331909540466 0.04831411996358965
84250000000.0 0.1165282402963741 0.04662224621354699 0.515563117458734 -0.3624861184253665 0.5221264525235603 -0.3612003411418572 0.10688718243484216 0.04821025075845068
84500000000.0 0.11553380220004078 0.047154801289485335 0.5146147230822882 -0.36471389905022494 0.5196526355492656 -0.3610268367166488 0.10719238048025752 0.04893368254632414
84750000000.0 0.11494574054878048 0.04763540022603901 0.5114873562557055 -0.36635703764897465 0.5209400188291844 -0.3594761298814592 0.10751369626536682 0.04920493298359459
85000000000.0 0.11607440907463033 0.04886955972850484 0.5116108700520706 -0.36807905452190365 0.5210147073244946 -0.3606494925808393 0.10860425910938061 0.050156459397936094
85250000000.0 0.11703597132281279 0.04882073770197025 0.5110093751861654 -0.3685901869838019 0.5199138977808879 -0.35996195123961006 0.1092188902738312 0.04971748181772268
85500000000.0 0.11823125571378698 0.04826364457847256 0.5110117924473864 -0.36898480408500145 0.5203616564970837 -0.36212483068724355 0.10864621509062086 0.04971449437641284
85750000000.0 0.1179738032802272 0.04767824383654181 0.5108093299917473 -0.3700244775562602 0.5190022609884564 -0.36462267756952066 0.10916338854088053 0.050661629554425255
86000000000.0 0.11800723628310912 0.04728648909753105 0.5110149675724827 -0.37007324521350377 0.5171493319220228 -0.36628212914164765 0.11022750097385284 0.04987593927746699
86250000000.0 0.11823448061853573 0.048355916968374386 0.5107301870104783 -0.369812902580143 0.5155971027538229 -0.3688562337241733 0.1100759035284083 0.04956430609082742
86500000000.0 0.1186818915405542 0.04790516808400194 0.5101946350220291 -0.3708228398516846 0.5147710784544046 -0.3704217366376842 0.10928714369364598 0.049788330693843405
86750000000.0 0.11824760455977239 0.04773500538822332 0.5093047499498959 -0.3722093065473993 0.5135764978043993 -0.3714386143181484 0.10979635182143578 0.04951813377836085
87000000000.0 0.11763131866585365 0.047757032862105864 0.5076074510000754 -0.37277461216411256 0.5138111179308193 -0.3703120042293181 0.1082134660417028 0.05096514415475234
87250000000.0 0.11847606764653626 0.048581980550423294 0.5076531117414208 -0.3741987645224006 0.5142823797293923 -0.3689280695984133 0.10941605471682589 0.050705106730271426
87500000000.0 0.11879972380726656 0.048361663529566445 0.5068634263148365 -0.3769701212468615 0.5151581792132905 -0.3703935934784001 0.1088021566603208 0.05094518764162495
87750000000.0 0.11807899534464004 0.048559549344126485 0.5063825772077486 -0.3769191256228304 0.5132209279856346 -0.371619450756202 0.10928412363010372 0.05119341293413564
88000000000.0 0.11867299787812476 0.049524388357431524 0.5065699937531787 -0.37771644013724787 0.5125807041068846 -0.3732736969370749 0.10883126969036812 0.052993682625523626
88250000000.0 0.11905232114847306 0.0509432513356647 0.5051939103127826 -0.379649684338787 0.5115633516813852 -0.37649009514055437 0.11188747867036399 0.053427807039844406
88500000000.0 0.12065126516692788 0.05044476199538561 0.5041403222168348 -0.3807933089756261 0.509835824133826 -0.3776240957144397 0.11092015251682918 0.052200221265847085
88750000000.0 0.12159200897177051 0.04918604978280301 0.5028316971235138 -0.3812766802196994 0.5089432240883981 -0.37596376087249117 0.11131040915852024 0.05229176863556804
89000000000.0 0.1202561923445734 0.04851093946919463 0.5022090987130573 -0.38306713039881374 0.5106242579543566 -0.3757086637495431 0.1121888596429915 0.052095430484536846
89250000000.0 0.1207529722904087 0.048276464934854095 0.501564175008384 -0.38494093154985903 0.5099336725680508 -0.3777054803689701 0.11194874252823775 0.05181024417931758
89500000000.0 0.12044163161112385 0.04682358338042827 0.5002426681967461 -0.38583973988177245 0.5081152087763825 -0.37935177217807164 0.11247712731953563 0.05115197359794147
89750000000.0 0.11983510535826226 0.04816731602109961 0.49992997329429256 -0.38659510076491743 0.5075372105416238 -0.3797105032295322 0.11199955981469113 0.05035572025063336
90000000000.0 0.12089147747658661 0.04948526786735568 0.4987145667652065 -0.3871361421684099 0.5066026383902511 -0.3800635949309552 0.11083514829191979 0.05139959031124363
90250000000.0 0.11971945549714559 0.04994456757508748 0.49916808172160504 -0.38759500136958186 0.5060546437510033 -0.38270243703367934 0.1108249143127125 0.05238073499050038
90500000000.0 0.12095132745457249 0.050334825902984826 0.4994482417157698 -0.3864860003859512 0.5040931606004313 -0.38395118722725974 0.11080082772374869 0.05346814388169541
90750000000.0 0.12010428523822825 0.050016561890891834 0.4998684718721438 -0.3861975548905357 0.5023294135471816 -0.3867297712122485 0.11350144876058009 0.05418058065989131
91000000000.0 0.12050798753804888 0.05041497104756371 0.4985138063043913 -0.38838039937408897 0.5026085793237844 -0.38671886954489143 0.1137206259453309 0.05385734747129246
91250000000.0 0.12072106224855239 0.05022361836522356 0.49625141321344746 -0.390770005744113 0.5028564618665745 -0.386857345238181 0.11503779357063636 0.0526168900078718
91500000000.0 0.1218638120402243 0.05007392828946177 0.4960693921721777 -0.3906386282979815 0.5012780050354393 -0.38813922529056244 0.11514206490881819 0.05243882413745032
91750000000.0 0.12226739072821255 0.049518965790819554 0.4960333403461899 -0.39040281875792093 0.5001927623068475 -0.38998114585423815 0.11517584654260117 0.05106994446483666
92000000000.0 0.12322103138317998 0.04920365968343738 0.49655256315501045 -0.38963415877015717 0.4985707290836191 -0.39096943795236994 0.11458224752270703 0.05107989121113613
92250000000.0 0.12179484827825286 0.0493021071956409 0.49736828686843165 -0.39011548336012725 0.4985038956637487 -0.39360612445378584 0.11425660543065248 0.05063415761563706
92500000000.0 0.12069549041616304 0.04937969022238176 0.4969759886154702 -0.39123955490952655 0.49614458115975585 -0.3956696842733218 0.11367465237836645 0.05179095290340162
92750000000.0 0.12098981836200112 0.05099166624330611 0.495315349664698 -0.3927725485753581 0.4957546481115954 -0.39528596124252197 0.11413644374329195 0.05237126345272254
93000000000.0 0.121245018188714 0.050795105641724535 0.49410535780166975 -0.39436049455185057 0.49633799017552266 -0.39504588968436155 0.1145509430888451 0.05246254699271713
93250000000.0 0.12122548221539933 0.05110415930992105 0.49332975985787664 -0.3954140656661325 0.49586086221364856 -0.39609697502057256 0.1134476692563486 0.05237901608837198
93500000000.0 0.12205219717931211 0.05088977298185583 0.4921999062239526 -0.3974376517270319 0.49610020736809135 -0.39603839409068364 0.11608552766204397 0.05358378329588507
93750000000.0 0.12193434530207703 0.051059073740497014 0.49008884434368827 -0.3996416993581391 0.4958337376885774 -0.3970823603825723 0.11634383068880251 0.05277670992082851
94000000000.0 0.12320999613371844 0.0516098058815923 0.48944126078551176 -0.39987364870323805 0.4946090198610954 -0.39628866558708575 0.11679109384736874 0.05226036987222795
94250000000.0 0.12439596455921588 0.05117638840724125 0.4905126374255352 -0.4013899722139672 0.4944768504381677 -0.3993495103675162 0.11748487882355539 0.05271503372470171
94500000000.0 0.12384753003807424 0.05143171645654093 0.4903572708040384 -0.40024351978071976 0.49197745892804684 -0.401046869681259 0.11811176343550625 0.052142648660978216
94750000000.0 0.1243830871113963 0.052059861725711795 0.4908313892353671 -0.4005139537759641 0.4907234153890927 -0.40378313156863893 0.11806680382676245 0.051322107424754085
95000000000.0 0.12486435930885519 0.05109925646691836 0.49037036803697426 -0.4011940635648721 0.48918967276536174 -0.4063961896745746 0.11744885287914526 0.05205812742427179
95250000000.0 0.12281852975612156 0.05128647680297456 0.4894707819869741 -0.40218439720461907 0.487970954220322 -0.4075167847890487 0.11753879246097887 0.05233381057707686
95500000000.0 0.1236173944870975 0.052353751888989976 0.4880371124889008 -0.4038174137577362 0.48851530018044076 -0.4066403565081249 0.11734831833352569 0.050974434778997185
95750000000.0 0.1243512782631546 0.05136012101123335 0.4856347195297159 -0.4053428927156983 0.4870264722961488 -0.40682728989177064 0.11621991463224843 0.05164818896815015
96000000000.0 0.12397786722596484 0.052171113857174906 0.48519932290678036 -0.406086930088663 0.48840263806175654 -0.4062428104284276 0.11632192047708823 0.0529377180851154
96250000000.0 0.12479603273805664 0.05271080271372846 0.4852801428678488 -0.40678746832864104 0.48728990566049074 -0.4083112792744976 0.11800023094310705 0.05341747339621354
96500000000.0 0.12533962933674203 0.052683295236606226 0.4852219568224296 -0.40666010764121324 0.4850867083319674 -0.4106942225854089 0.11854697826372272 0.05361965342377255
96750000000.0 0.12655633042880512 0.05349432831589119 0.4852632081901975 -0.4068442993047481 0.48272030768051116 -0.41353938319984274 0.11911216927275999 0.053154641084689605
97000000000.0 0.12603776745523115 0.05327313668834118 0.4848969134970563 -0.40554098826558016 0.4809994116346229 -0.4141945999865169 0.11851940956418276 0.0537420456599264
97250000000.0 0.12612294217585904 0.05390711550568944 0.48486964520770837 -0.4079571857792005 0.48141687941714534 -0.41540692841708104 0.11964886020084646 0.054462783452565056
97500000000.0 0.12704141691912882 0.05536667254339552 0.48112040980552795 -0.40993036667386185 0.48022543438595033 -0.4153114979345204 0.11886763903504892 0.05279341823547573
97750000000.0 0.12796982325316297 0.053724650130025274 0.48064792082757574 -0.41055338939181046 0.4795130850098047 -0.4149532849308689 0.11939698716812507 0.05354319663156799
98000000000.0 0.127477998900304 0.05222230191798886 0.48001775938824015 -0.4111883454575442 0.47849155544595906 -0.416359085351905 0.11937537236811961 0.053578007119020644
98250000000.0 0.12822694138986593 0.05221012583334498 0.4798126837964131 -0.4108541708617445 0.47745279583708117 -0.4175881105483148 0.11905843117283017 0.052409050290247464
98500000000.0 0.12803866165493097 0.051728995132650515 0.4790514331709952 -0.4109303253690249 0.4764198799348395 -0.41833192179526846 0.11864105007892474 0.052186922025001484
98750000000.0 0.12740064936711054 0.051846423596591 0.4789493857571559 -0.41144799595028253 0.47594198510214447 -0.419633850181084 0.11863472796258208 0.05240962338350416
99000000000.0 0.1274626124461947 0.05270676874940494 0.47757842761502295 -0.4130385449728625 0.47532701901435803 -0.4193249779825804 0.11684317526923631 0.054737678744015424
99250000000.0 0.1284502443703911 0.05369709520145404 0.47698001119820865 -0.4142080058100499 0.4756122629914605 -0.4201874663085095 0.1185702779056258 0.05623816482582122
99500000000.0 0.1288444089100133 0.05338626583142408 0.47547241379079985 -0.41560852712910884 0.4753598705218136 -0.42073402199409005 0.11941788447564956 0.05584153193239794
99750000000.0 0.12936559275178844 0.05328787303680361 0.47487553800435195 -0.4156253250953266 0.47515143826815387 -0.4209214498379584 0.12049745399541993 0.05524946532591281
100000000000.0 0.12900128714482384 0.053067718301948036 0.47543500603405464 -0.41816965016635116 0.47500216334581413 -0.42301151127180836 0.11859617330480768 0.05500225928926507
100250000000.0 0.13006257684332836 0.05376229194986048 0.4741184121214511 -0.4178729255376536 0.47307099420549403 -0.4245175431426768 0.11942298374229637 0.056007580772272705
100500000000.0 0.1313758385359357 0.05236856479259426 0.4746601877298747 -0.41948047411350003 0.4730005163394236 -0.4259935357838029 0.12146582473125288 0.05631420655084659
100750000000.0 0.13060597320980022 0.050717860715958005 0.4731201889891957 -0.4199398864970128 0.47067274352454425 -0.42751183688841843 0.12085830973673842 0.054153038517443304
101000000000.0 0.12906214385787151 0.051246295659077214 0.470996058670357 -0.42155108632638455 0.4693873582407541 -0.42788254500129685 0.12016974553835703 0.054665129636289424
101250000000.0 0.1281831448807148 0.051217323936688174 0.4702296544618668 -0.42238935659118904 0.46935595370830924 -0.42747770587253525 0.1212210557503622 0.05514394045429447
101500000000.0 0.128910497236844 0.052703139820385714 0.46677641664585673 -0.4250751681858615 0.46938388763456623 -0.42656157716461574 0.11979960233038243 0.052961351119391334
101750000000.0 0.12860313180435767 0.052951757993949 0.4655871061205025 -0.42577417281078384 0.4680005270134969 -0.4266667291346186 0.11865816865091455 0.054671892171582775
102000000000.0 0.12982400165503025 0.05279790256604274 0.465636121568227 -0.42489290854055717 0.4683468740374201 -0.4265524775387408 0.11892214394514738 0.05635369255797352
102250000000.0 0.13030334391549497 0.05293772020814375 0.46619071220701636 -0.42609617106657827 0.4682112144837298 -0.42812601960901464 0.11996628017429674 0.05474327470187147
102500000000.0 0.13032862268931597 0.052177482355821814 0.46495066405479285 -0.42739976465701646 0.46715910211848893 -0.4289168153446472 0.11994045570275474 0.05583633179469735
102750000000.0 0.12990988312715226 0.05107266393909434 0.4644087327893326 -0.427810001476138 0.4668056305924951 -0.43029770733868716 0.119834229473597 0.055436334895997356
103000000000.0 0.129469461377569 0.05192945157591999 0.4638502174671487 -0.4287191698709274 0.46587134092504395 -0.431112274304974 0.12062059103726978 0.05670390741750029
103250000000.0 0.13065278540060238 0.05247772135098667 0.4617249537648793 -0.43053154794800236 0.46461619896887585 -0.4320301006274871 0.12227404674808603 0.056454331600348115
103500000000.0 0.1306032406419663 0.05171072285382744 0.461976956492071 -0.43226499602433915 0.4639653261640862 -0.4342449042926493 0.12292693025823274 0.056198078170318036
103750000000.0 0.1291926211106046 0.05164233280494485 0.46070123419093806 -0.4326408547453819 0.46158626666199987 -0.4355774009741559 0.12273161817178566 0.05539529523084779
104000000000.0 0.1289722012609336 0.05210946316341102 0.4598612569237455 -0.43197364406078914 0.4584219599623806 -0.4344297534500994 0.12276969009926268 0.055236084523465685
104250000000.0 0.13016690664601646 0.05236392643800529 0.457952325508694 -0.4338307495275818 0.45714712479203357 -0.43441705204334174 0.12246473920025423 0.054237979317295064
104500000000.0 0.13058463477849383 0.05158536294929982 0.4564098845600425 -0.43377295413661193 0.4575531909865461 -0.4335898341603779 0.12282126522453961 0.053791425733535944
104750000000.0 0.1301013066330442 0.050725374154555684 0.455951518012319 -0.4358402733940269 0.45899529273485223 -0.43298386120651766 0.12111481593105983 0.05352211145984118
105000000000.0 0.13002884991130767 0.05205795239486566 0.4535267431574078 -0.43802675792624834 0.45952053302829604 -0.43272995572647993 0.12132796271698913 0.05413892054746974
105250000000.0 0.13082415507512973 0.051657826968607524 0.45715573515916075 -0.436363875421622 0.4563227255726913 -0.437039455279542 0.12245722933724193 0.055637858528268816
105500000000.0 0.1300791899792028 0.05190959235326898 0.4570534986683513 -0.43652102981182306 0.4554592392667002 -0.4384766636249976 0.12415694296991212 0.05488594585454591
105750000000.0 0.13009281133187758 0.053478515320690714 0.4557769124102245 -0.43784611931382394 0.4537315844929317 -0.4404666315247188 0.12457286588808994 0.05490943834289312
106000000000.0 0.129902525701738 0.0538306388951517 0.4559660382910947 -0.4380158292991511 0.45378676476000324 -0.4414972565252477 0.12567721888054284 0.055408650448859856
106250000000.0 0.1305892606431593 0.05360010462695189 0.45477767197727376 -0.4403873481696991 0.45289840272268295 -0.4437768024264485 0.12596607755529277 0.05477909821577423
106500000000.0 0.1299846467511327 0.05343845723343359 0.4513089602109869 -0.44106674562203557 0.45122898332323624 -0.442754674368085 0.1255245419313561 0.05313182775367333
106750000000.0 0.13073655624325514 0.05288716371293265 0.4514492778942846 -0.4405829096897676 0.4507085304925817 -0.44453753831209847 0.12452809961129993 0.05303870856780929
107000000000.0 0.13064301215475932 0.05238441648798042 0.45124897477287446 -0.4424313034530473 0.4498820858248442 -0.44526178857430293 0.1251227166195223 0.05304335308956335
107250000000.0 0.130828798799328 0.0538185775276251 0.4495296963489589 -0.4432179001925981 0.4498038648422814 -0.4448842330233096 0.12508552534421258 0.05160914329958243
107500000000.0 0.1309655424594885 0.05415294313647544 0.4488029071696882 -0.44335727791826846 0.44879989668632264 -0.4453885227845804 0.12360236061388642 0.051938646561635805
107750000000.0 0.1317688567458505 0.05407958030747066 0.4482655621707797 -0.4436717726224945 0.4480978054774365 -0.4467139182445406 0.12317364865206112 0.05358447489296522
108000000000.0 0.13053249137253733 0.05337851909873038 0.4495198830448775 -0.4441741595830784 0.4481429962269016 -0.4487775254606178 0.12375910522851422 0.054852852280735886
108250000000.0 0.12879470895406073 0.05473112178788502 0.44904496506778935 -0.44658388931815457 0.445260185625988 -0.450289599503476 0.1252172071983398 0.05678244113911505
108500000000.0 0.13104518169344118 0.05615415680576555 0.44832116726881827 -0.4461854272622009 0.4462442498606296 -0.4504026068496733 0.12652721724865773 0.056895204117063704
108750000000.0 0.13060607404705438 0.055013922145937116 0.44645034895678315 -0.4487103024776196 0.4442616186382357 -0.45094449699021405 0.1272227512638244 0.05462946921599514
109000000000.0 0.13149304504133633 0.05479130000830573 0.4437659483155168 -0.4509876228040381 0.4454133621678664 -0.4501063166182578 0.12647076546393868 0.05415498051907048
109250000000.0 0.13188097584696357 0.05347700106849231 0.44256560158330327 -0.45101552281243507 0.4444185881347607 -0.4514929105350364 0.12697169041135623 0.05538407562893907
109500000000.0 0.131162354715147 0.054375685074303445 0.4408179729941363 -0.4516272615529838 0.4424083835015683 -0.4506440253257084 0.12784169369517484 0.05320702806219676
109750000000.0 0.13369854089356406 0.05457510957886119 0.44182585351545434 -0.45185607360848673 0.44210332457254853 -0.4522407915495606 0.12779878731029068 0.05297415572734213
110000000000.0 0.1343136728485244 0.05472390305099793 0.44059359012909916 -0.4533351708619877 0.4418443583517161 -0.4534498039963592 0.1282459686499543 0.05184913886293017
110250000000.0 0.13321731652926605 0.055878073108407804 0.4415303147159553 -0.45234710590757066 0.4399234671853511 -0.4566312813538692 0.12572921755773722 0.053187048446053604
110500000000.0 0.13405504015279546 0.05689767661151126 0.4418595648862367 -0.45124947905423174 0.43790890140025385 -0.45742873124996947 0.12600982398121768 0.05445047899775744
110750000000.0 0.13305714609947114 0.05588751530856516 0.44199601486490553 -0.45135555190887505 0.43665224875622716 -0.4592961757519641 0.12359761797332343 0.05507595822239311
111000000000.0 0.13208543832113673 0.056284911344043384 0.4424094824780487 -0.45176959333909206 0.4372925226420925 -0.4596060096280297 0.12428902047527378 0.05661564037084223
111250000000.0 0.13291183955354832 0.05682114931001081 0.4412163493997221 -0.4535214183794915 0.43749482620638974 -0.460236121550149 0.12472473915303398 0.05763595985799955
111500000000.0 0.13371037359554847 0.05720072894745775 0.4381532904745571 -0.45625403215191696 0.436741662123216 -0.4601782153183359 0.12525845124625876 0.057388164035632176
111750000000.0 0.13614853522508955 0.05658278220922056 0.4375126225952017 -0.456745861746037 0.4365718405060712 -0.46017830312760355 0.12681370932064143 0.05814564687089673
112000000000.0 0.13627775964064415 0.05497592425061941 0.43756178139603535 -0.45699102597685165 0.43560063528475335 -0.46238420323344953 0.12853251757129056 0.05779786565902267
112250000000.0 0.13483443170556156 0.055647989632296564 0.43718614846475606 -0.4572832812817425 0.4339594746335113 -0.46364992736140376 0.12815975133013796 0.0571258190984827
112500000000.0 0.1351338363728677 0.05600123712966318 0.4364285983627837 -0.4583536816339234 0.43278879271543863 -0.46523888347974274 0.12860673145921445 0.056934397106531705
112750000000.0 0.136282524690909 0.05595350423125973 0.43568874024226634 -0.45887175395782515 0.4317158915056725 -0.46627257497701463 0.12815420134777816 0.057179411076078254
113000000000.0 0.13605981504695977 0.054991951463754726 0.4344406538653036 -0.4603312214490067 0.43111418033906695 -0.4672011974255522 0.12748514415409778 0.05598839023676607
113250000000.0 0.13510468620152705 0.05524101605740048 0.4330750338447683 -0.4610101982031068 0.42963443904329274 -0.4673096000869607 0.1256357336294206 0.05731468154371605
113500000000.0 0.13657991589436236 0.055525541323817984 0.4308854545928325 -0.4614299167365841 0.4280974795382838 -0.4670795508389914 0.12539103515695565 0.058256701636627294
113750000000.0 0.13627096492371754 0.055240151039011226 0.4312345187408631 -0.462172506800955 0.42923994528413656 -0.46686617690968907 0.12619324189151346 0.059279182482828395
114000000000.0 0.13740363315916487 0.05657276531380166 0.43000203233310336 -0.46332681946722554 0.4277314081715625 -0.46841772515980945 0.12750575659756128 0.06131811548830717
114250000000.0 0.13865218078949737 0.056581031393333765 0.42936954578156117 -0.46384626414784597 0.4273847709840889 -0.46908922805712633 0.1297098377020996 0.06100923286870522
114500000000.0 0.13862397460565407 0.05591183412973218 0.42882206769737247 -0.46459780204119977 0.4265379493407022 -0.4702267410231521 0.1295929235031322 0.0599972112734547
114750000000.0 0.13879381813440647 0.054760435473831706 0.42887974592442546 -0.4659693773663414 0.4266541862138884 -0.4709120524534319 0.12994507049850423 0.06149821517872236
115000000000.0 0.13716582148449327 0.05419849651145852 0.428427536009934 -0.46774720223757327 0.425270961206881 -0.4727468335593891 0.1315517566190311 0.05990830312514913
115250000000.0 0.137899594941347 0.05403941220892357 0.4271638303162403 -0.4681791194595376 0.4243060266505546 -0.47385492394856027 0.1300662019832665 0.05909243415990182
115500000000.0 0.1379983028978066 0.053582408932691235 0.42601820983076477 -0.4685361496222423 0.4231960173091447 -0.4736666080927937 0.1299678856434517 0.05945166928462885
115750000000.0 0.1381703270241241 0.05302563199869322 0.4237317036893559 -0.47069752226657396 0.4233442484702569 -0.4736775765526642 0.13022447608680945 0.057637955652128064
116000000000.0 0.13843456670823637 0.05268906221140893 0.42057664426333574 -0.4722185810016728 0.4233611924679356 -0.4718100985139599 0.12951532016100298 0.057259699906731056
116250000000.0 0.1384543726511376 0.05304231141699025 0.41988015127051753 -0.47352436911503065 0.42339807645808397 -0.47265778075347503 0.12816840717314112 0.05701048765775281
116500000000.0 0.13804483137008433 0.05352370402130676 0.41972215431966603 -0.47342829448411466 0.42252748276020946 -0.47431722546352273 0.12791954253959734 0.05994412211740195
116750000000.0 0.1377551547604327 0.05473704728159581 0.4205278030774921 -0.4739457073174008 0.42208590810539937 -0.4754673526585719 0.12862658910040636 0.06045818768244784
117000000000.0 0.1370439519156152 0.054357782477628604 0.4206302711581819 -0.4743360270691767 0.4202986005788142 -0.47747767637016764 0.1287230485601233 0.06208656182986879
117250000000.0 0.13786129608700462 0.05540739927675952 0.4196978712884306 -0.4758654967343149 0.4188271465597058 -0.47901371872377935 0.13129594995875984 0.0620851489296041
117500000000.0 0.13758053221044383 0.054745292576030516 0.41797235429425356 -0.4762776445148488 0.41877343845885345 -0.4791685805828257 0.13094152237153855 0.06117371306879894
117750000000.0 0.13845769763177926 0.05451735606859477 0.41712496026799983 -0.47792998786758883 0.41829618625806997 -0.48006211263318305 0.1318172795082647 0.0597791016181845
118000000000.0 0.13820904223405087 0.05390735377505053 0.4161686010305134 -0.47869754586125474 0.4182821718861733 -0.48013983614942235 0.13218516889055673 0.05971351934626763
118250000000.0 0.13919760020671082 0.05355585497382072 0.4149693741052432 -0.48002248380450185 0.4176066864218167 -0.48107180046759646 0.13258350857636064 0.05812124518951395
118500000000.0 0.13612631547908124 0.05182297947016518 0.4132298368456924 -0.48116432993531844 0.4162355599741331 -0.4814741118363106 0.13198990497472607 0.05815420678689028
118750000000.0 0.13703905918907722 0.05175426532788295 0.4120784897967395 -0.4815720341329334 0.4150479026640326 -0.4818888894448828 0.13210255552166023 0.05823883650331857
119000000000.0 0.1396467221661147 0.05400599009769989 0.4125425732555482 -0.4812845611219499 0.41436949988756705 -0.48408548687831887 0.1326481336070677 0.05687939491566525
119250000000.0 0.13910902180978524 0.0533998137407082 0.4125233014327263 -0.48195328600048154 0.41196911778142875 -0.48695866468612936 0.13267943729794818 0.05776163509718014
119500000000.0 0.13749924960847498 0.05457087928952127 0.411449034595733 -0.48126244518437705 0.4077432917495929 -0.48796874878503 0.13133954768129313 0.058322591410203226
119750000000.0 0.13758718637249892 0.056072953250939306 0.4118942905722136 -0.48270191724644446 0.41038135393638214 -0.4857692123484916 0.13189293429233015 0.06016022765414623
120000000000.0 0.13762849752514614 0.05608854621648337 0.40773758088408824 -0.4863934589840955 0.4124036740546825 -0.4849549424845638 0.13396876721100118 0.058640511017093874
120250000000.0 0.13858554710459084 0.055641179699181295 0.4077447104533753 -0.48628774322916846 0.4091010777244332 -0.4852260772180237 0.13291473463636666 0.057361789283254104
120500000000.0 0.13685370713727912 0.053881917307992654 0.40960210855979207 -0.48640939538134736 0.4067743866469215 -0.4884415004084941 0.1324456200123568 0.057083294595305326
120750000000.0 0.13899865339264122 0.05504497759463134 0.40831255807441635 -0.4889822532868115 0.40649533861494547 -0.48867733520264556 0.13453027286550712 0.056136975622945486
121000000000.0 0.13914669927134807 0.05518024890248641 0.4072300273651465 -0.48967449368915233 0.40589583792185335 -0.4902389060135404 0.1325267811479223 0.055236789082665314
121250000000.0 0.13936170956130298 0.05522439559816445 0.4070895405448561 -0.4896368655485058 0.40459634967383934 -0.491094110635391 0.13235005311216044 0.05712625649343991
121500000000.0 0.13866509464327267 0.05567077848886546 0.40590942850263634 -0.4905835529302663 0.4023571004969439 -0.49327981895448064 0.13368120411215895 0.056398392801920626
121750000000.0 0.138394646714975 0.056502167344922596 0.405847001599559 -0.4899154852556818 0.39987049506594896 -0.49516145991296245 0.1330392857227804 0.05579793213403469
122000000000.0 0.13836396654211214 0.05742424871530249 0.4059504529676629 -0.49108834260263234 0.39821330943501243 -0.4970464356635799 0.13256922017312578 0.05597334705185522
122250000000.0 0.13678018379122603 0.05837657224532902 0.4032430818295748 -0.49275731950574875 0.39828475438678107 -0.4959068236642687 0.13205903536430666 0.05604686119052494
122500000000.0 0.13849136591167485 0.05755922722473817 0.3998635165593121 -0.49242128717753536 0.3976541579111583 -0.49513335200397945 0.13100768019723658 0.05650117431096892
122750000000.0 0.13930405497114476 0.056235914268358056 0.3994347610973245 -0.4933984719915579 0.3984026539495228 -0.49571910135575425 0.13252851845881677 0.05627244003166005
123000000000.0 0.13858153717300853 0.05755545964514188 0.39826425921807174 -0.4939882542002217 0.3980527134406108 -0.49507340103530995 0.1327833237635717 0.056305086553012015
123250000000.0 0.1388870120847026 0.05813662714837625 0.3978658946294151 -0.4945675263647955 0.3986852207517527 -0.4956715257582653 0.13332954148199289 0.05545091795539348
123500000000.0 0.14018865929088267 0.058881104231989286 0.39943522562056116 -0.4957833419347269 0.3970037835412239 -0.4981949582500954 0.13308987926656723 0.05618992941769122
123750000000.0 0.14185250961546592 0.05950035001777129 0.39787666313958864 -0.4971589642636171 0.3953066435898498 -0.4997625474418384 0.1325302989574381 0.058013722061731963
124000000000.0 0.14033518976062942 0.059719597800047534 0.39883699309323917 -0.4962281930221216 0.3947508803463185 -0.5006616815920614 0.1318652218185071 0.05834685848726363
124250000000.0 0.1400603961919239 0.060518631110240424 0.3982291841302524 -0.4988117954809162 0.39327941314249076 -0.5035471725303987 0.1337689291353203 0.059287417388699984
124500000000.0 0.14089345749782262 0.06024878331351781 0.3953908555918138 -0.4995330883760472 0.3920538566095652 -0.5025683194275532 0.13428482209802428 0.05913571372387948
124750000000.0 0.14219474360136455 0.05896340097535403 0.39320825762761746 -0.5004469082487878 0.3928015272289283 -0.5016620538803527 0.1351494265243661 0.05817068264879066
125000000000.0 0.1424411838232336 0.058791335253338094 0.3928020333113881 -0.5021020095754792 0.3927412162478349 -0.5035707582335591 0.13428906129963478 0.056815330003041814
125250000000.0 0.14179072260114875 0.0582261976399269 0.3884609118532211 -0.5024796950972725 0.3897796894633013 -0.5034166181181855 0.13343810525320243 0.056183349896708056
125500000000.0 0.1423395385322007 0.057014769201198634 0.3874021593210082 -0.5050476251438605 0.39041948499659485 -0.502345015863749 0.1323249274995455 0.05722373736245599
125750000000.0 0.1429228407792811 0.05896013762274255 0.3873455979877418 -0.506000613245725 0.3911239526506442 -0.5026416130513885 0.13291660251317763 0.059996464557231774
126000000000.0 0.14299277683798148 0.059259790066794785 0.38835671780896003 -0.5051804171476258 0.3873671064680794 -0.5053427819182903 0.1348500659323269 0.05910159529658198
126250000000.0 0.1438250868771411 0.059653751690878346 0.38897117405357345 -0.5050101767115922 0.38613143024387686 -0.5076231372214032 0.1341478040190977 0.058906737049825256
126500000000.0 0.14336576993986722 0.05819023344934785 0.38937786181794226 -0.5044634063506775 0.384539156359621 -0.508818711510264 0.13476333397572213 0.06012459300379203
126750000000.0 0.14271916730293066 0.057352476661650054 0.3883161019705236 -0.505459070694622 0.38481706427574647 -0.5091988459759136 0.13433683519317932 0.05820820159368066
127000000000.0 0.1427569113874652 0.05751599349394405 0.3852046878214378 -0.5079027001156292 0.38398223350155947 -0.510008983168846 0.1340412089511221 0.05822888078099247
127250000000.0 0.1444299107460273 0.057697875257944516 0.383801900834672 -0.5079439129577422 0.3843790037863296 -0.5095603354888235 0.13358906691662523 0.058695537568833535
127500000000.0 0.14429715276365945 0.05707167938497635 0.38348352600806174 -0.5090333197513908 0.38346885516079926 -0.511105933198848 0.13458616268577725 0.05854009703935682
127750000000.0 0.14470208561457165 0.05716983670067878 0.3821555802712347 -0.5094952228434795 0.3817487865001227 -0.5118951088460667 0.13441332649114512 0.058571342192935694
128000000000.0 0.14364181400713022 0.05629410757077167 0.38063386498274016 -0.5119246257277633 0.38027362733429393 -0.5138684085877068 0.13466980565326997 0.059456491161637065
128250000000.0 0.14254479260828343 0.057065830951374685 0.3795472002044119 -0.5116189128002667 0.37828498116217024 -0.5140624916847132 0.1344914949582542 0.05955349172580318
128500000000.0 0.14138852723281595 0.05829722762077571 0.38004952750521304 -0.5112011402162564 0.37861304534496604 -0.5153537423610053 0.1332997121198428 0.058885383521998035
128750000000.0 0.141899847827854 0.05837068558995207 0.378940029061776 -0.5122525545419325 0.3779609369885737 -0.5160743403430258 0.1342348890861921 0.06049952292001971
129000000000.0 0.14385892844620723 0.05845340591719088 0.37769576939872507 -0.5137850721405892 0.3779897313959003 -0.5163767798031316 0.1340486502540854 0.06008207359219534
129250000000.0 0.14346438422322838 0.058425058704650326 0.3760503992478342 -0.5146481690783277 0.37681246015545605 -0.51624905283743 0.13398033746379048 0.06036389723721622
129500000000.0 0.14558395716661798 0.05996610335924059 0.37437027852340726 -0.5167565595000627 0.37640843096054266 -0.5161864789593058 0.13535693691367803 0.05923480392400845
129750000000.0 0.1462590568082082 0.05900218587388812 0.37268841467852726 -0.5171291197437267 0.37438338910115454 -0.5163998454355645 0.1343726315712387 0.06051205097796755
130000000000.0 0.14660624045384693 0.0590648114982097 0.37373380951968416 -0.5159993919534189 0.3737292138937637 -0.5178112177890151 0.13605124101262794 0.06115095274644974
130250000000.0 0.14601714072405028 0.05772808727177473 0.3733634714016708 -0.5166636576597538 0.3713318773944389 -0.5198540306007374 0.13454778972543285 0.061495236920184715
130500000000.0 0.14600697499688678 0.058486132341867815 0.37432065233732387 -0.5162775879050547 0.3693926081162547 -0.5210125591095652 0.13674259741615727 0.061677362580200026
130750000000.0 0.1450250698197645 0.05737379471548269 0.37406802052939064 -0.5179606141345812 0.36822106842598884 -0.5227389647672765 0.13591385054014574 0.06143797444806191
131000000000.0 0.14548199663575645 0.05663955724521466 0.371807927919009 -0.5190818180432054 0.3673579422058168 -0.522262258690039 0.13688885823917576 0.0606688916830291
131250000000.0 0.1453906163539803 0.05699742686179043 0.3688698183750192 -0.5214512058135721 0.3697578832197793 -0.5222823169249624 0.13806420142933282 0.05928174081354753
131500000000.0 0.14568474498472336 0.057146149014014935 0.3654950200215389 -0.5220241426455464 0.36963312618381655 -0.5223045638536645 0.1361621313527156 0.05700287103686502
131750000000.0 0.14635827610299368 0.05608949267544604 0.3627485703692205 -0.5242483045751668 0.36944566881279517 -0.5223163839126728 0.13623829840966675 0.05807310696814777
132000000000.0 0.14570159919572753 0.057726240664204495 0.36228313347059965 -0.523532098150412 0.3690306344135916 -0.5211975696430662 0.13706563288907533 0.057858060901253706
132250000000.0 0.14550292478481294 0.058649967968097065 0.3629508724683876 -0.5234134534631415 0.367932067272293 -0.5222255413004651 0.13721608998260726 0.06066055908077392
132500000000.0 0.1474652651479982 0.05890249981946501 0.3649971732983864 -0.5224501028244968 0.3643158837025895 -0.5264256863069767 0.13757949621643625 0.061020122024180744
132750000000.0 0.1457441993897384 0.0580864525075518 0.3657295770126527 -0.5216048677944249 0.3621512675122154 -0.5284505136581451 0.13783702893262484 0.06084948161199111
133000000000.0 0.14439192794898942 0.05738488737278024 0.3666532135634723 -0.5235609479967059 0.36170512066083127 -0.5293379654278726 0.1375511755384968 0.06139655737015442
133250000000.0 0.1445835821760854 0.057312963131881826 0.3621897945138472 -0.5267726107509834 0.36194601853709757 -0.5289141438281312 0.13774083730168665 0.06150376300797542
133500000000.0 0.14530613093416647 0.05829226512244811 0.35979954206283116 -0.5285006057026358 0.36200952291850597 -0.5296199309111388 0.13742603201331152 0.05950009563967035
133750000000.0 0.14614252354260535 0.05788307146558158 0.35696140644457414 -0.5301478026134172 0.3626144357315588 -0.5299624316653831 0.13664808979682494 0.0592398036036269
134000000000.0 0.14635734195825498 0.05769703031299372 0.3550699795805158 -0.5301706150354097 0.3610799507365143 -0.5300309132743479 0.1378347106545269 0.0607251921857258
134250000000.0 0.14714935523868175 0.05952403860816642 0.3548306357109211 -0.5302962901865355 0.35953447311948766 -0.5305195534782093 0.13791701471354348 0.05993801310667278
134500000000.0 0.14692541056780342 0.05879453237313932 0.3545994117714106 -0.5295693948814628 0.35917158293817636 -0.5299632326705598 0.13895631283515242 0.0579988437451743
134750000000.0 0.14663972377259113 0.05863240043596315 0.3526913277737303 -0.5302787892132269 0.35620082659167257 -0.5316954638260611 0.13820379008269146 0.056804933889623044
135000000000.0 0.14547726055224067 0.06010969190162504 0.3544139931360262 -0.5284093555406306 0.35366506621284266 -0.532281506695206 0.13824046654855987 0.06150824560868983
135250000000.0 0.1467808112606609 0.06220743178831696 0.3537541572848567 -0.5304488698782222 0.3530252599635696 -0.5329284497347204 0.13805273817039837 0.06323661141683293
135500000000.0 0.14857541099177587 0.061194994530713205 0.3528402873661918 -0.531930708065397 0.35400761826882765 -0.5320897728324078 0.13861352849030573 0.06302441561363831
135750000000.0 0.1489429924361482 0.06124174154330484 0.35156960095386147 -0.5332557708193 0.35474855321953735 -0.5334782411835061 0.14000991051737466 0.06354912077017676
136000000000.0 0.15037439776332878 0.05960531179833171 0.35055110824094965 -0.5345206392424875 0.3533679917228637 -0.5337655703950567 0.1410028037877303 0.06217749557844757
136250000000.0 0.15144401123605125 0.06031687072474591 0.3491925796739645 -0.5354222447295253 0.3530097466792454 -0.5342121862553847 0.14004250484426237 0.06119601102324542
136500000000.0 0.15247828182188497 0.059552628300832494 0.34682396215884626 -0.5390434059032487 0.35545455498369477 -0.5332033382582441 0.14127687235864575 0.062363854763053325
136750000000.0 0.15067983218181255 0.057672900308497616 0.3430925933173097 -0.5397470144630552 0.3541386810253547 -0.534596424035878 0.14078568208827852 0.062462600518637446
137000000000.0 0.14878514805037799 0.05909085137469127 0.3445444328256452 -0.5392565820929897 0.3513479575329778 -0.5343917540970012 0.14201077992268815 0.061371916819674854
137250000000.0 0.14657703031184252 0.058798718675581854 0.344276718486683 -0.5387468717795427 0.3486603118828789 -0.5380357934679485 0.14296497251404747 0.061161693164685414
137500000000.0 0.14772042605453656 0.05993410272814426 0.344688185024739 -0.5379438967937711 0.34483402066897473 -0.5387378534632032 0.139194534114599 0.06083232787020145
137750000000.0 0.14867357611714163 0.06094928330347731 0.34387460004807935 -0.5362007929147214 0.3439949312966664 -0.5380930551878219 0.13888913130922095 0.06266109110815359
138000000000.0 0.14964576431048074 0.061897792436209825 0.3441718338857708 -0.5377070045884051 0.345128358855144 -0.5402244463515417 0.14028232566245402 0.06349102510212723
138250000000.0 0.15097689149847288 0.06137339328405886 0.34088805659826193 -0.5399723616627585 0.345073269077996 -0.5398812450295585 0.14055073820575462 0.06421830788544057
138500000000.0 0.1504956589017885 0.06175364543155778 0.3387272970748484 -0.5410474253278542 0.34539791833026506 -0.5389466736994472 0.14025796731961362 0.06286751259774925
138750000000.0 0.15045553996504818 0.061831048241254266 0.33593813896593466 -0.5424763178638435 0.3460794035553499 -0.5400110526950899 0.13831124260852543 0.06491382467741448
139000000000.0 0.15015148590181912 0.06191956535635402 0.335788396629573 -0.5425486849538425 0.3440853775466534 -0.5399821097619015 0.13907789757819133 0.0662673494856578
139250000000.0 0.15110438278679994 0.06505340651543313 0.33747135733064565 -0.5425462864320664 0.34167999114729203 -0.5423074065595462 0.14095785313841422 0.06566370874879664
139500000000.0 0.15186588494689643 0.0629305357471928 0.3386821571207029 -0.5420338752458475 0.3380901321793097 -0.5448407943153601 0.14034277861242783 0.06527234172193173
139750000000.0 0.1511683511883913 0.06203266546261049 0.33899018923089874 -0.5428997328702937 0.3352502985121351 -0.5471474463975645 0.14188468401215462 0.06614283543796073
140000000000.0 0.15133221621685275 0.059574221306851 0.33970590526119354 -0.540716083987532 0.33210577481697506 -0.5485151961998328 0.14200534596543596 0.06610502320040543
140250000000.0 0.150626618333258 0.06033328352271045 0.3394576020643307 -0.5427088056486565 0.33261318903597964 -0.5490399589132029 0.14244101406535384 0.06515815041905895
140500000000.0 0.15208443753060366 0.058859590242375824 0.336631784213581 -0.5453323954408104 0.3305755177076755 -0.549589078708033 0.1425044906176751 0.0636507888464657
140750000000.0 0.15072845529054144 0.058138676378960474 0.333204928058922 -0.5469677973011975 0.32936701975261956 -0.5476426541055283 0.14164295917112948 0.06350758400712665
141000000000.0 0.15108536232946737 0.06055612034195005 0.33181082050586796 -0.5460528497950464 0.3320462357461154 -0.5468511261556566 0.14169062019107936 0.06530702723101475
141250000000.0 0.15211773595174194 0.06137266175024974 0.330139368760885 -0.5471739747650249 0.3312511580815216 -0.5462220335273069 0.14232776082324114 0.06528139384356425
141500000000.0 0.15416326174540435 0.06157201183942602 0.3294068712067021 -0.5489587913466463 0.33204492337412744 -0.5478188757143514 0.14322852476094095 0.06582328207976347
141750000000.0 0.15404452297156185 0.060690379257534816 0.3299311340131337 -0.5484269697173533 0.33063658489337716 -0.5491352460657049 0.14256747205137732 0.06702255028905682
142000000000.0 0.15400765652676346 0.06043512381802945 0.3285092295974327 -0.5507095646984259 0.3294978226981627 -0.5513111770706415 0.14328536637270448 0.06737834859699128
142250000000.0 0.1540160422433199 0.061469201652648985 0.32781548159485513 -0.551463905659221 0.32830737032178 -0.5507665681639271 0.1445976623184427 0.06686013721210833
142500000000.0 0.15476358723508837 0.06087711431559569 0.32691493160879787 -0.551710505037446 0.3245851494551454 -0.5539382613492239 0.14497402541461987 0.06821385091295862
142750000000.0 0.1550097685255945 0.06021390547488284 0.3248455539605908 -0.5525349142790309 0.3248852108121779 -0.5552290493428195 0.14521455030695804 0.06967427431492099
143000000000.0 0.1526511915143024 0.06070710228964358 0.32254612840764163 -0.5563658659487499 0.3258913137316215 -0.5543457021757621 0.14566426506139818 0.06847151243719223
143250000000.0 0.15349719590419136 0.06125748412711688 0.3226402715129489 -0.5542750511469379 0.3220923073881651 -0.5556661157612747 0.14733559239831523 0.06885986779727965
143500000000.0 0.15206427050917246 0.0625731468004011 0.32318359625519294 -0.554350384771675 0.3188631136044867 -0.5565242081502556 0.14743162938375848 0.06914633807298934
143750000000.0 0.15281777292146587 0.06429171078514308 0.32345140459621674 -0.5527578859791179 0.31788947381985855 -0.5571190095299623 0.14548432626866994 0.06862123250772201
144000000000.0 0.1531081698966759 0.06460200106949139 0.32215900267822467 -0.5555731022454209 0.31558176943177657 -0.5586467551126774 0.1452249841688159 0.0665242984450342
144250000000.0 0.15255857892325586 0.06410230500943027 0.32009731112583245 -0.5547716476030522 0.31420582516365964 -0.5585435655298794 0.14491196208726997 0.06633746861995382
144500000000.0 0.15249603840836112 0.06378921619701333 0.31958631778894353 -0.5569968818573654 0.3141788163080128 -0.5572505133702179 0.14513519546983433 0.06678020540842872
144750000000.0 0.15315876553102373 0.06214751310490517 0.31845811775860877 -0.5577736558647186 0.31413066136652473 -0.5584107463270336 0.14461318323324224 0.06702343099155114
145000000000.0 0.15278012009625522 0.06074108349487494 0.3173643934985225 -0.5578408855751785 0.31242644957048993 -0.5593818956394055 0.14534992432112728 0.066573251869969
145250000000.0 0.15424527257431095 0.062242066672291554 0.3114754742346912 -0.5599429257613932 0.3151180778603811 -0.5584799145043273 0.14665693040706776 0.06867237089473481
145500000000.0 0.1533192313636376 0.06420551550645272 0.3129789219667748 -0.5618029727656215 0.31499673423052293 -0.5592326411851051 0.14811965629218643 0.06803925413736892
145750000000.0 0.1560374218880988 0.06341452250338764 0.31347829275616174 -0.5633450317103197 0.3138855997468464 -0.5624421062284308 0.1497657940578045 0.06660948846045414
146000000000.0 0.15493696568966736 0.06336905104416227 0.3121475418108896 -0.5650661978078264 0.30861387118674355 -0.5640894444634879 0.14861321825313253 0.06544255530194712
146250000000.0 0.15401886259680608 0.06341469790505053 0.312190740031054 -0.5630703444825822 0.307623027720758 -0.5651011481127642 0.14873952849452513 0.06594941184236408
146500000000.0 0.15292176373550476 0.06415519807465056 0.3094442434255875 -0.5656144911829543 0.30699891262465234 -0.5647751805594288 0.14772553393250815 0.06438856639422891
146750000000.0 0.15227884426826613 0.06552873558363652 0.3081441481160202 -0.5643737472348115 0.3071262467628208 -0.5638249786525305 0.1468780496280793 0.06533246335008866
147000000000.0 0.15315121530093279 0.0656210846922478 0.30548385757915525 -0.5652498176237762 0.3058320964813888 -0.5635697318958601 0.14595583733790646 0.06691394517240945
147250000000.0 0.1538371635983149 0.06614553292504252 0.3048358105958172 -0.5662663742484254 0.305401692347457 -0.5655541509683912 0.14541978410792467 0.06712278317339594
147500000000.0 0.15456074800781547 0.06758022434270865 0.3037427309137063 -0.5662189106874463 0.30597783809726703 -0.5645986950083449 0.14632800093697915 0.06829438699284064
147750000000.0 0.15846570130032497 0.07026685195798758 0.30387544067886474 -0.5679778516725611 0.3065476551927367 -0.5655632950930153 0.1472082667615447 0.07050415894578159
148000000000.0 0.15265552216902387 0.073239648273575 0.3040638381996184 -0.569128695711214 0.3050448073265976 -0.566925098547492 0.14794138226820652 0.07277261372460288
148250000000.0 0.15759101770073786 0.07132887666608065 0.30610786593650224 -0.5672240806166933 0.30238770793885567 -0.5685479437197036 0.14834984677406288 0.07404912043927155
148500000000.0 0.15605898603242388 0.07175870718464294 0.30360869504610877 -0.5698647664589678 0.30230358769790117 -0.5707285705636647 0.14732319100879435 0.07409460321192607
148750000000.0 0.15276213675305314 0.07244686393952382 0.3010534593020025 -0.570651318054818 0.3019234357953525 -0.5695987682128965 0.14814925080584576 0.07510635388842934
149000000000.0 0.15413413064573328 0.07445301463091915 0.29902687503490394 -0.574009124113848 0.30002393353087287 -0.574190568024388 0.14565464192399638 0.07276276292927332
149250000000.0 0.1517230676650737 0.07364023978115071 0.2944051768345088 -0.5752534831812772 0.2991936276485923 -0.5719673191060274 0.14657862645241895 0.07166104596082194
149500000000.0 0.15425366306944455 0.07380756743403422 0.2928045504228871 -0.5736199417782715 0.2971777623572009 -0.5723191873013608 0.14657124116922457 0.06763244855989649
149750000000.0 0.15516813469774074 0.07340339581427335 0.29140150627401085 -0.5748072923950909 0.29664023801296285 -0.5685008692941893 0.14403412010244257 0.06797422344722623
150000000000.0 0.15611548242234863 0.07220591279428301 0.2870916402437616 -0.5749698162116241 0.2992749539082975 -0.5705579703475715 0.14396182237086136 0.06955722870303273
150250000000.0 0.1590475681237349 0.07284790715756591 0.2842307560292511 -0.5766094556326249 0.30163194092201967 -0.5692886475082705 0.145912152350508 0.07122689662649695
150500000000.0 0.16040577196754316 0.07181331597727877 0.2952648844967166 -0.5714726468281724 0.29068335809521473 -0.5752760163858847 0.14638373012908176 0.07359253848573244
150750000000.0 0.16023177767319075 0.07277183620997105 0.29513284871566464 -0.5737369558948786 0.29208235149500555 -0.577242690080963 0.14722129101363024 0.07538033766416469
151000000000.0 0.1604216376382987 0.07256538537143863 0.29380435123339554 -0.5775983265190264 0.2905798789400225 -0.5816650466221575 0.15075344724295445 0.07732357819699243
151250000000.0 0.15946511141257183 0.0728777732745238 0.28940142253497997 -0.5796600050272684 0.286673780252036 -0.5827096156004792 0.15222718926609913 0.07643581755615739
151500000000.0 0.16047924441275208 0.07257897603611932 0.2852812895531883 -0.5787926499405888 0.2836673648536078 -0.5811902313052039 0.15265037579380383 0.0751571758354954
151750000000.0 0.15850245243949038 0.07428977343562848 0.2831801318032928 -0.5768603385357229 0.28471015403478694 -0.5789641771458771 0.1500826395887847 0.07508468652152489
152000000000.0 0.16139859060122722 0.07709385567045886 0.2833693940251209 -0.5768980968895947 0.28692848835732104 -0.5764458388240189 0.1490998388980084 0.07631200446276067
152250000000.0 0.16282772819525346 0.07759198166979818 0.28541455787933473 -0.5777103251396117 0.2864723042545195 -0.5797791616695716 0.149142692100002 0.0782439880020315
152500000000.0 0.16468947163729766 0.0766380521861424 0.2850466817782567 -0.5796690781800518 0.2842118492961118 -0.5819329267831461 0.15007377583768627 0.07602269144334127
152750000000.0 0.16558046465494639 0.07732395431877759 0.2842680485975742 -0.5799263350652785 0.2805710569938888 -0.5822173254465389 0.14772964736797892 0.0749178954835037
153000000000.0 0.1651095617389197 0.07817539916071833 0.2824808887198929 -0.5810006717816798 0.2801587247640787 -0.5838376363846028 0.14692429603114016 0.07557576825975036
153250000000.0 0.16406896512620084 0.07119446151259737 0.280258749311169 -0.5800986322183063 0.2778327180134299 -0.5815935230938598 0.1524426366223136 0.07389669403272611
153500000000.0 0.16253923484631924 0.07125106236474353 0.27918212547116117 -0.5813796617853377 0.27783249162113316 -0.5817463291406174 0.1517212337142772 0.07424281125472797
153750000000.0 0.16322633112908663 0.07068400001580877 0.2773902814317577 -0.5821689018786436 0.27758655386771247 -0.5827732767610745 0.15278312627577187 0.07523538378450559
154000000000.0 0.16337420566718475 0.06998420341706024 0.27508910428881694 -0.5832838124894505 0.27805327165963484 -0.5829973929690416 0.15260187615854737 0.07564092063952658
154250000000.0 0.1645508967864978 0.06939856218788905 0.27639538972969546 -0.5835672508214755 0.2765888566385241 -0.5840296155572292 0.1531205716729195 0.07568694696102282
154500000000.0 0.16674354246689357 0.0694703099231982 0.27650686628300497 -0.5841421452016443 0.27583947933718567 -0.5850600925834767 0.1541139097765677 0.0755271795440965
154750000000.0 0.16580340074077296 0.06950531881697783 0.2753180555347585 -0.5859650394427356 0.2742731935091448 -0.5864863659133968 0.1558669485538765 0.07406609017485026
155000000000.0 0.16766566023862897 0.07006921186405866 0.27341737621414003 -0.5879384120571118 0.27296309353350273 -0.5887157192522883 0.15530868740903078 0.073715443565596
155250000000.0 0.16755616100394116 0.07046029213165955 0.27247268158833454 -0.5893436356618862 0.27093788573433064 -0.590463211421802 0.15663706074079048 0.07418672599441507
155500000000.0 0.16638331140528692 0.0693589067020745 0.26911144699638073 -0.5898265099001317 0.2690685502578851 -0.591127462313893 0.15671368084624407 0.07394275555237899
155750000000.0 0.16489963677053512 0.06972113329544853 0.2661113863143155 -0.5896256274084959 0.26858777774256837 -0.5893794899119259 0.15646943477482816 0.07454269261939361
156000000000.0 0.1652789289990737 0.06902489075291061 0.26584874050298973 -0.58978249001772 0.2677680201225451 -0.5886977271563877 0.15692439993101134 0.07374364447631711
156250000000.0 0.16511192577444728 0.06818292369734567 0.26516737475097996 -0.589474916857892 0.2675919154641233 -0.5886063654502812 0.15694862127943396 0.07356547863354798
156500000000.0 0.16643153293588595 0.06673557712415829 0.2637057326733036 -0.590806509021248 0.2668008680363833 -0.5892139131821296 0.15662428652867594 0.07298475483400371
156750000000.0 0.16591634156523627 0.06757638520718555 0.2622061133119773 -0.5920558248418474 0.2680536474376146 -0.589940676512014 0.1574198255340849 0.07362917887529162
157000000000.0 0.16603025967186336 0.06830870580450549 0.2605684534558808 -0.5936075439295695 0.26667377656898067 -0.5903819053044236 0.15769549106725192 0.07361662098196411
157250000000.0 0.16562475047925884 0.06899254492359574 0.2597617616219671 -0.5943545082319883 0.26395587619344446 -0.5914864192528486 0.15833013238929486 0.07230234027486615
157500000000.0 0.1661404850826216 0.0715746856931802 0.2611493388684686 -0.5939870729703924 0.26110400145287577 -0.5934392378152075 0.15721207502431195 0.0731239164264424
157750000000.0 0.16483273605842766 0.07239047590770127 0.26086696468474135 -0.5938197454916425 0.26015462780238596 -0.59527352913009 0.15696663039708894 0.07426623549289696
158000000000.0 0.16455978193408644 0.07222741281375658 0.2603471458301285 -0.595822835717675 0.25893805584763985 -0.596543385092142 0.1577055891220333 0.07404525812901921
158250000000.0 0.1646169396589786 0.07221201714057958 0.25754887162977824 -0.5955689293403036 0.25712503792479263 -0.5980806261260885 0.15754750286438227 0.07476112520277103
158500000000.0 0.16594132765642647 0.0710909084475629 0.2549737694876846 -0.5951616378035142 0.2552549935723987 -0.5969537102628193 0.15839807238161654 0.07388510558622298
158750000000.0 0.1670347695857446 0.07080664297811393 0.2543365558419602 -0.5951089364213367 0.25545800650561273 -0.5964189936186405 0.15893064123271358 0.07347635559788845
159000000000.0 0.16830924559378463 0.07182773568451116 0.25297690469029405 -0.5954106814656729 0.255775638017063 -0.5956755791697323 0.15800363369625364 0.07274243627266253
159250000000.0 0.168674172177519 0.07292831979969802 0.2529331630602043 -0.5953716230877074 0.25406880453240177 -0.5966646648356716 0.1590741942137851 0.07385973043298749
159500000000.0 0.16888707570280867 0.07363744735162309 0.25322564969553085 -0.5966783508224484 0.252987141543167 -0.5980297506233084 0.16046918838724714 0.07358414226007134
159750000000.0 0.1668504969016757 0.07458045591161187 0.25170965128093936 -0.596828347182451 0.2513622914420409 -0.598906429072487 0.16011630596397824 0.07471672217873881
160000000000.0 0.16874693134345325 0.0733537972390447 0.2510391626815661 -0.5982115372352255 0.25103647437696536 -0.5978005356535662 0.16038473978113962 0.07768504324725452
160250000000.0 0.16937388575765142 0.07319492531260272 0.24973891216954006 -0.6005162688095635 0.25119856845063554 -0.5993203582371835 0.1610474078781257 0.077327922047458
160500000000.0 0.17104856702242735 0.0723376087674549 0.24800145511192642 -0.6016672210041337 0.25192340356256876 -0.5995991869748433 0.16196723727351603 0.07790446583660937
160750000000.0 0.17297724967282466 0.0722694240365792 0.24652565478381674 -0.6012872536889005 0.2503813329118394 -0.6009536308954133 0.16226456370661968 0.07777121986306468
161000000000.0 0.1747488727829654 0.07270899487666749 0.2435151710085764 -0.604071430378393 0.24878229780913602 -0.6024199527510458 0.163217693427719 0.0776232923458079
161250000000.0 0.17589937488910515 0.07214477474734246 0.2426362505088162 -0.6032767277268852 0.2454146606139887 -0.6023248264182666 0.16499806238592 0.07812758749135447
161500000000.0 0.17555446118214724 0.07382705290523914 0.24156092511183888 -0.6035296063232746 0.2434278076933924 -0.602461060497757 0.1668070442868308 0.07866300756521007
161750000000.0 0.17339129390738386 0.07517896138407942 0.24066058942788088 -0.6031021481455883 0.24074978666809924 -0.6024943219053268 0.1678433399823287 0.07812957823393356
162000000000.0 0.17198911681959766 0.07603065191580331 0.24036719632700237 -0.6025151414066148 0.24153418098838586 -0.6021733591765963 0.1681599171176275 0.07644353139277223
162250000000.0 0.17288867551986387 0.07408397795381788 0.24020866341683356 -0.6027227117709676 0.2413545753561576 -0.6021130452928783 0.1681646992134279 0.07897531322465921
162500000000.0 0.17530493046664705 0.07215447270765192 0.23930214011037856 -0.6034090825732726 0.24079205763786252 -0.6037178554389003 0.1680678044070444 0.07825540953380886
162750000000.0 0.17478512152839737 0.07201060816678842 0.2371833235317858 -0.6037324943573016 0.23854726767903794 -0.6046489425908558 0.16682255471832474 0.0786264908960632
163000000000.0 0.17692462027953595 0.07294661854328229 0.23582019572800306 -0.6038013351812035 0.23835604545617964 -0.6042620825433723 0.16802507165192132 0.07907655129742537
163250000000.0 0.17611106919740208 0.07380990589685216 0.23614894654668717 -0.6054628089515707 0.23630612708166204 -0.6061493390366524 0.16775821862049686 0.07775995012202466
163500000000.0 0.17890333113074305 0.07477439241657538 0.23585936917287487 -0.606297397840222 0.23327834509159262 -0.6086838257566135 0.16901131641677902 0.07955508491868797
163750000000.0 0.17945027693429888 0.07460411446892866 0.23382759821657492 -0.6063920647575116 0.23124972586110584 -0.6092064686826761 0.17045406211638484 0.0807371449698041
164000000000.0 0.1780105380918276 0.07515548667847428 0.23250751674254136 -0.6066780175473181 0.22938014098642157 -0.6099237221941707 0.1717125293373544 0.0819653824740225
164250000000.0 0.17776331821895736 0.07590810475329164 0.2306654206570788 -0.6070613742098724 0.22977454740428774 -0.6105055522029816 0.1725331026498087 0.08137213124405081
164500000000.0 0.1778872169789476 0.07484294243889564 0.2279953037787512 -0.6073050012619238 0.2296365924039994 -0.6092178008207136 0.17331139751049793 0.07974084308405277
164750000000.0 0.17850047614040554 0.0748676143807122 0.22491868801430442 -0.6081093248920599 0.22947207039816075 -0.6089211179300371 0.17401842977306087 0.08033499724012157
165000000000.0 0.17863974025473464 0.0735688686671572 0.22275594937676593 -0.6086576784356994 0.22914523636735648 -0.6080768683913037 0.1728358574366554 0.07826949036925314
165250000000.0 0.17977034858862007 0.07338830158368585 0.22121551174027726 -0.6098749583605203 0.2297541201385304 -0.608919385566729 0.1724530464441948 0.0786335918773381
165500000000.0 0.1795406635994446 0.07328046878496348 0.22010241711945805 -0.610489103384616 0.2285442741401984 -0.6099502419074392 0.17116130279097694 0.07938808453263468
165750000000.0 0.17809505984712323 0.07525899701363528 0.22012960640807577 -0.6100011725055556 0.22527863446280177 -0.6111060508201228 0.17154718390919868 0.08110943382875888
166000000000.0 0.18175926165538817 0.07577508332823076 0.22086909771077257 -0.6104937785547546 0.2246958188592189 -0.6122358226587074 0.17483145082783794 0.0822978405885866
166250000000.0 0.1834953929802012 0.07702436940951311 0.21999939678360914 -0.6109092924987805 0.22268063842702346 -0.6129550496815215 0.1760568409300744 0.08260123585404731
166500000000.0 0.18333853223937796 0.07808517621082486 0.21844334610045055 -0.6122699975751714 0.2202173356386974 -0.6141768150851715 0.17753824467058596 0.08138591057152779
166750000000.0 0.18367101920371479 0.07680110217758133 0.21662775080190116 -0.6138893233287728 0.2193750145228213 -0.6153182062290923 0.1777729235356479 0.08035430902045565
167000000000.0 0.1837475503367713 0.07460719700638906 0.21479196150146793 -0.6147092428331455 0.21776593998661067 -0.6159295379195231 0.17706679995639105 0.07913178487804663
167250000000.0 0.18278374802876962 0.07360702415795628 0.21189393149259422 -0.6153876352155382 0.21579006720010419 -0.6151599031140775 0.1775000645444818 0.07986448662035452
167500000000.0 0.1821428894542267 0.0729834075500475 0.20995605647370852 -0.6153991159023762 0.2155647607654381 -0.6135880408070533 0.17787330471119725 0.0799303418155852
167750000000.0 0.1831528916536486 0.07404178549156379 0.2114851230170774 -0.6141418062141231 0.2146599448956233 -0.6149017763150856 0.17801279319989152 0.07921025805807452
168000000000.0 0.18286095856556223 0.07439852535970863 0.2103707993545171 -0.6138971855311717 0.21313542218363604 -0.6150603308470207 0.179065436030042 0.07952436940943428
168250000000.0 0.1824630032249804 0.07404477523312131 0.21005019821354967 -0.6170047700951831 0.21203756071066024 -0.617549685484484 0.18097167365853484 0.077855027244054
168500000000.0 0.18179990952161842 0.0752397976631856 0.20902179741913984 -0.6169249265904226 0.21212507733844882 -0.6173419762793133 0.18010671851095938 0.07559152673819469
168750000000.0 0.1819389809554161 0.07520478224491271 0.20651795075022863 -0.6179674570713548 0.2122126862565138 -0.6193512699096416 0.17929644769505265 0.07599235384410467
169000000000.0 0.18224397235583756 0.07653512427336559 0.2042661952220505 -0.6190534007286139 0.2108724507859904 -0.6182713334931111 0.1797142336429103 0.07499557197447405
169250000000.0 0.18351760419036958 0.07618753170287491 0.20104502411306532 -0.6206331286129396 0.2104505631783547 -0.6191767427983019 0.178846821703718 0.07470372519812611
169500000000.0 0.18368358094590645 0.07537123430118281 0.19841333732783206 -0.621835963103243 0.21079787634426778 -0.6183471644177362 0.17836427428839255 0.07542830745222479
169750000000.0 0.18316744368724922 0.07504760752341309 0.19709999605271708 -0.6226746228163303 0.2090709408470772 -0.6201054578470981 0.17886455602128762 0.07489173302577418
170000000000.0 0.18336356693334702 0.07534968949012183 0.1974388603389834 -0.6222313062775717 0.2061798934195459 -0.619827840779585 0.18001954610778445 0.07641252540555268
170250000000.0 0.1843394204683907 0.0735097542650077 0.20339955646803765 -0.6217578331453618 0.19787079035770383 -0.6240992581092235 0.18092801187918747 0.07381648754331742
170500000000.0 0.18513904960506525 0.07242884144612674 0.20147453196190082 -0.6227229305649064 0.19415426893233287 -0.6249840414542679 0.18130859844435815 0.07349962594910568
170750000000.0 0.18420908881649942 0.07364314117001977 0.20117955176262947 -0.6222199818811187 0.1936558314863517 -0.624806312023064 0.18118750174443432 0.07127904342824674
171000000000.0 0.1837262018085645 0.0760152072752411 0.20031219459263322 -0.62244339377736 0.19289699618948256 -0.6253266885235861 0.180096260157129 0.07255713961314561
171250000000.0 0.18236360256437142 0.07749357857892308 0.19862362993090912 -0.623795130736883 0.1940058866472164 -0.6243963699738346 0.18017230524590477 0.07235044208426117
171500000000.0 0.18094275969728113 0.07736733158703318 0.1961832858447791 -0.6241558141641159 0.19393975794555365 -0.6244607895238549 0.1795754310020284 0.07304158526011773
171750000000.0 0.18211204775855025 0.07630877293546201 0.19548456268772074 -0.6255151401831771 0.194021724813511 -0.625242439991534 0.17927580648695965 0.07351307013100576
172000000000.0 0.1834230695485053 0.0756113209047398 0.1935140017740361 -0.6261796027906691 0.19206457225628212 -0.6268872883548069 0.17887238590727259 0.0719657675091034
172250000000.0 0.18587777447127302 0.07579935434720472 0.193601385398264 -0.6270844233756536 0.1891370582116842 -0.6288526839927542 0.17955019058537702 0.07227961705103908
172500000000.0 0.18693078370911503 0.0769102309032625 0.19268403297414546 -0.6271489638219402 0.1854163754820749 -0.6295967408501731 0.18074815523415744 0.0723283668692799
172750000000.0 0.19081430295101776 0.07866352517776559 0.19281520787571624 -0.6267496687228581 0.18245247109009208 -0.630391538946756 0.18100594812969814 0.07338831827526578
173000000000.0 0.19059208156371177 0.07691454520155068 0.19019368374086756 -0.6277021878103517 0.18080183959656254 -0.6295956420036332 0.18310473667793498 0.07286163374771189
173250000000.0 0.18951113584335053 0.07724092232584265 0.19039562773055504 -0.6268615715854784 0.18129856614599144 -0.6306183298136174 0.18299168589736192 0.07468140903176115
173500000000.0 0.18687047144569796 0.07635239518447397 0.18560007100828133 -0.6280529048614605 0.1829539256975081 -0.6296634015204625 0.1832597571955209 0.07398574231133175
173750000000.0 0.1883025692063535 0.07588850812693006 0.18149565069052848 -0.6290550111425651 0.18443267447998923 -0.6283972598261941 0.18306890515285149 0.07297501605230242
174000000000.0 0.1872105101778186 0.07390750633187251 0.17816991887406228 -0.6297852586326042 0.1870144290693758 -0.6281679896687254 0.18433311462797813 0.07297529155874014
174250000000.0 0.18848754283391927 0.07341234557373319 0.1766247750532975 -0.6310985801056903 0.18631239444513875 -0.6285478856502197 0.18380344688979247 0.0713351557072768
174500000000.0 0.190719243800755 0.07428689936140108 0.17745669105158987 -0.6312864640860817 0.18278633606494715 -0.6295724792570038 0.18331535505986307 0.07111769200400005
174750000000.0 0.19118648306534902 0.07617040846368198 0.17645834104545716 -0.631914982996577 0.18046528567481399 -0.6312248145851905 0.18347142094827054 0.07034782581547787
175000000000.0 0.1923423795845126 0.07633687038568186 0.17558427622052636 -0.6318262993507094 0.17558911956734632 -0.6324882765059361 0.18340287232937028 0.07248153464472736
175250000000.0 0.1928955003121774 0.07904954660458972 0.17456618234540996 -0.6318893345093234 0.17382128733068825 -0.6327077310120897 0.1841795181730655 0.07443261085787253
175500000000.0 0.193107414838753 0.07811661582686354 0.1727152945332224 -0.63223521561228 0.17393983450768769 -0.6331073391912139 0.1856064830306734 0.07688151640345574
175750000000.0 0.19295238932083858 0.07892448603823837 0.16985644961693672 -0.6331485308509038 0.17358161436812133 -0.6325924535536244 0.18705490591434776 0.07682861222530654
176000000000.0 0.19388579761318295 0.07664946101415898 0.16733763949701072 -0.6342476591738632 0.17247813959131378 -0.6333678574588519 0.1873638735036794 0.07695239986811574
176250000000.0 0.1942570572474318 0.07343974640687657 0.16621699723566724 -0.6339537677530487 0.17086234020489066 -0.6323640354217702 0.18792118209304157 0.07533967328887688
176500000000.0 0.19495427977488647 0.07227114933398392 0.1661882903245669 -0.633082940416443 0.16969524232032895 -0.6320368357720727 0.1883150696094063 0.07468374836826078
176750000000.0 0.19544776559990398 0.07298295154382684 0.16602002590220333 -0.6332216258835198 0.16655163882834212 -0.6334313685391562 0.18845035569186544 0.07342152387403633
177000000000.0 0.1960207300531692 0.07350340300075593 0.16473886557746356 -0.6325805062214528 0.16584588588585994 -0.6336823163587129 0.18743293045293247 0.07401334848969458
177250000000.0 0.19736688110106262 0.07448128495213135 0.1649761823951435 -0.6342682191345478 0.16382135036541445 -0.6342492338411002 0.18940512011685648 0.07532449125944099
177500000000.0 0.19687337591438486 0.07621170375129313 0.1633216325217159 -0.6348429304416925 0.16290521844349432 -0.6364759231233038 0.19048129122388524 0.07547563861328495
177750000000.0 0.19716011657323979 0.07874249127947831 0.16013771041309738 -0.6367561069043476 0.16098247131958515 -0.6373956442474449 0.19057951156119204 0.07523993477655584
178000000000.0 0.1968492862092092 0.07703847458877999 0.1563372725479864 -0.6364869241017358 0.16153707632714656 -0.6359570491972132 0.19037279705017296 0.07504228070412622
178250000000.0 0.19700893773348233 0.0748030291843445 0.15454893468321362 -0.6373333058956786 0.16265346541087874 -0.6359077794031054 0.19007519321208774 0.07662774454163153
178500000000.0 0.19874640644173083 0.07238135965610595 0.15255528623731465 -0.6382730757780837 0.16233256141198116 -0.6362230055303858 0.18967739960025765 0.077562076812774
178750000000.0 0.19993101758752602 0.06997165300608346 0.1502253188144256 -0.6384939847719479 0.1604547356608023 -0.6365442509473712 0.18903246373733398 0.07662684809040182
179000000000.0 0.2007103146156096 0.07017444953245891 0.1510688153156908 -0.6374494227159753 0.15751286900088693 -0.6368629274487516 0.18967768183321448 0.07668498188826164
179250000000.0 0.19849011899831 0.06786229355171555 0.15110195806620266 -0.6386533603542924 0.15639468996882433 -0.6387460448947581 0.1891504310361879 0.07387036331674754
179500000000.0 0.1986401248689949 0.06953279262273836 0.15037171192425733 -0.6385922771245204 0.15264901259362354 -0.6388774569010005 0.19043221311964598 0.07345623660809078
179750000000.0 0.19880201648006596 0.0706956098826668 0.14957090501201822 -0.6405438551575423 0.1516447666060919 -0.640760558148686 0.19135288033520287 0.0726218315774821
180000000000.0 0.19922283716020797 0.07126267611863658 0.14405248330433945 -0.6407585915459477 0.1511209081964537 -0.6394749586376144 0.1927481989241784 0.07631629716908986
180250000000.0 0.19756476550434365 0.07266189871861886 0.1333667019474705 -0.6429138538378548 0.15793509031215613 -0.6372572469217896 0.1920088965527514 0.07588164899259514
180500000000.0 0.19810559189297824 0.07392940135529659 0.1464559845749276 -0.6408017612190511 0.14452531837247165 -0.640382703430318 0.19277390247680748 0.07675149674337979
180750000000.0 0.19791619626328144 0.07088199319437848 0.1417196987317383 -0.6416254273527283 0.1469269544123231 -0.6398999335492219 0.1917451351361127 0.07530796846234762
181000000000.0 0.19990179831099775 0.0686941957916538 0.13755129332850924 -0.6425534067042308 0.14649476399085612 -0.6406033466908588 0.19229722776322705 0.07523194626096746
181250000000.0 0.19975505668365473 0.06769796582240896 0.1368665788309016 -0.6415646193395029 0.1433550504850617 -0.6399933264411004 0.1904562371740616 0.07499679444465579
181500000000.0 0.20207593236773394 0.06888265178385507 0.13997967012840468 -0.6415493787336909 0.14181195965476245 -0.6413010626895044 0.1911134431989585 0.07446284022329061
181750000000.0 0.20721974528028264 0.06962802787342813 0.14119560545111323 -0.6425356413912865 0.13736174867412607 -0.6426544968710727 0.19167687682316598 0.07268734128833094
182000000000.0 0.2047079666762243 0.07134606907721625 0.14236953672302705 -0.6426775933474799 0.134669552340182 -0.6439155531909927 0.193598500698406 0.07389567809630473
182250000000.0 0.20476752732588474 0.06891054627856484 0.13785272345193864 -0.6418220596757562 0.13308417788879887 -0.6446665900644191 0.19303065363917649 0.07482858252227542
182500000000.0 0.20154339585211498 0.06988615047043206 0.13454234484945818 -0.6427699174245768 0.13335088418442043 -0.6431350032417764 0.195509331610059 0.07437165411497403
182750000000.0 0.19707047461387028 0.07066414763444265 0.13429723358271525 -0.6421336726921636 0.1335751415990921 -0.6426247529765821 0.19529454132312826 0.07390916833991704
183000000000.0 0.1949942578100733 0.06997894933991174 0.13139616633222645 -0.6424968521064138 0.13510833143047968 -0.6416897022155645 0.19416602597824223 0.07323915284940412
183250000000.0 0.19750863953691908 0.06887416996396274 0.13017920804821204 -0.641687656679707 0.13503559302340223 -0.6422818521298594 0.19258286454650927 0.07375721002654721
183500000000.0 0.19918662382929558 0.06716648177927582 0.12919164319819518 -0.6421657294953861 0.13339855095527026 -0.6422345401130533 0.19316531400472442 0.07152159764094831
183750000000.0 0.20204217809535374 0.06911455043586794 0.12804068158624216 -0.6432868900951304 0.12927839872093036 -0.6435568697969478 0.19169481110602307 0.07148713276963707
184000000000.0 0.2045587410348459 0.06917261494680278 0.1294667516471771 -0.6421084321016867 0.1267767270685456 -0.6444141745961509 0.19299405112760917 0.07118744723170316
184250000000.0 0.20539270740234947 0.07127363509203186 0.12740317770815038 -0.6435683125511651 0.1262121305686683 -0.6449527299516932 0.19175559586039687 0.07031271090657523
184500000000.0 0.20517422916546105 0.07132364573109831 0.12678691336566508 -0.6436831450919138 0.1262548957489964 -0.6452525912630139 0.1914927364549339 0.07173557025152001
184750000000.0 0.20340019310246013 0.07308949379220467 0.12484192963987845 -0.6451516549798034 0.1257587648578522 -0.6463445512125946 0.1933346891786849 0.07539438534775043
185000000000.0 0.20082009158861686 0.07123504478966186 0.12350886668619362 -0.6441977514379993 0.12442333341156081 -0.6453008363069408 0.19456571753131502 0.0752572811563297
185250000000.0 0.20029219703643283 0.07029001983237033 0.12199209898426377 -0.6447112093277791 0.12397572858481763 -0.6461377221097885 0.1942166086731364 0.07382384534852066
185500000000.0 0.19950782281326315 0.06709304665050389 0.11962460075437877 -0.645933239414216 0.1224988231320259 -0.6470411649766904 0.19395879711402328 0.07278466493998866
185750000000.0 0.20138556766490226 0.06783148461100544 0.11855032259166048 -0.6447124348239621 0.12101358444923693 -0.647234187654348 0.1935161794033093 0.07174831715305356
186000000000.0 0.20196030685955768 0.06975045962485375 0.11711813208909201 -0.6437839320903377 0.11868837493649013 -0.6476942109372408 0.19380217644758724 0.07245110137083442
186250000000.0 0.20326694085147587 0.07294153900450867 0.11516756906288728 -0.6455909656520414 0.11684445571195629 -0.6484951136988439 0.19427820816560537 0.07210647755358818
186500000000.0 0.20557827870481385 0.07559722140401932 0.1136185221944994 -0.6456388140484102 0.11564501087289153 -0.6481937188512026 0.19532204720237564 0.07395029126193606
186750000000.0 0.20696881119525193 0.07495052104671299 0.11073534093358756 -0.6458219047073022 0.11387578349201133 -0.6478639726998305 0.1989060421926021 0.07502805389998278
187000000000.0 0.2053437005768882 0.07504658700090716 0.109228008776442 -0.6451929065105049 0.11454413859882022 -0.6464747560962866 0.19693163071362663 0.07607348913025241
187250000000.0 0.20405915492771917 0.07450352513630519 0.10743023843584856 -0.6458377626472607 0.11416892641425004 -0.6458125227083089 0.19485376898470483 0.07556294311566614
187500000000.0 0.2055554947068693 0.07288115628487668 0.1064390847639524 -0.6464206478833207 0.11398843567551675 -0.6462382357844246 0.19645192552204288 0.07757131860934602
187750000000.0 0.20596987037821482 0.06936754966722318 0.10391344117530109 -0.6459599133375531 0.11180894900700486 -0.6467872934582852 0.19825473884249278 0.07650949238054919
188000000000.0 0.20866519237879658 0.06888033554294117 0.10263936486953701 -0.646573423963492 0.11203979687580799 -0.64601872690254 0.20012078285804463 0.07627602360145817
188250000000.0 0.2112063680465168 0.06457407114060883 0.10270793198549119 -0.6463191262270919 0.10858766143647725 -0.6476166511476482 0.20134442844768982 0.07489030715970268
188500000000.0 0.2097015374024663 0.07164205766394431 0.10353323098515715 -0.6462039026803484 0.10514414505277017 -0.6476197142683092 0.20406500031862798 0.07437957704486199
188750000000.0 0.21039219202447754 0.07190617929672126 0.10406399354198778 -0.6454950680695684 0.10343429460123721 -0.646951227344222 0.20318941088277578 0.07631162870641062
189000000000.0 0.20888032999475645 0.07467715643158375 0.10082480688558591 -0.6454889834191938 0.09987492720929082 -0.6474962136787092 0.20499222920279442 0.07585897214045415
189250000000.0 0.21005950531308226 0.072785479339721 0.09933886275587339 -0.6462228213978992 0.1025370335887515 -0.6470915076717894 0.20186025513439707 0.08169192298660863
189500000000.0 0.21140625999360277 0.07283686899044635 0.09666393744651242 -0.6468278292768171 0.10251572951419169 -0.6473361642957742 0.2028835660961327 0.07912399950218253
189750000000.0 0.21204774085031808 0.0680216844755989 0.09509176216538524 -0.6469328024660862 0.10004028914605385 -0.6465793795999668 0.2033090014472471 0.07749132146005053
190000000000.0 0.2119058992167659 0.0658619331414586 0.09765663489553066 -0.6462359386175024 0.09511361318885407 -0.6466565082783625 0.20244607424920794 0.07516039857929234
190250000000.0 0.21533954633317381 0.06551875571640867 0.09709208856675039 -0.6464377104143214 0.09150877331838426 -0.6473942017392128 0.2046102384777374 0.07495837602181346
190500000000.0 0.2180790569153715 0.06734222638803215 0.09742005586294893 -0.646538474259696 0.0892971878761322 -0.6482969595875264 0.20621601665051667 0.07452780479662258
190750000000.0 0.21906440489802878 0.06914360536072517 0.09590915505955126 -0.6483614229463058 0.08926853676156497 -0.6486139034096247 0.20774705322175294 0.0776034725774357
191000000000.0 0.21874787483073432 0.06627275449133176 0.09215628867539276 -0.6478200432264996 0.08816645894703636 -0.6479017665089081 0.21032629560502167 0.07879578334204775
191250000000.0 0.21750358506794332 0.06785690817073944 0.0880018508595894 -0.6479610266508308 0.09087533598465956 -0.6480401589177003 0.21210269744901802 0.07867849546929402
191500000000.0 0.21552204652099358 0.06648100883762502 0.08389999439442972 -0.6480437196656549 0.09180029274930827 -0.6464888763508725 0.21170907759781285 0.077717644195211
191750000000.0 0.21367959224884306 0.06589192661149657 0.0833233747433122 -0.6486015763700396 0.0906833351230733 -0.6470045712128394 0.20869689273195136 0.07808583997980763
192000000000.0 0.2133191597876479 0.062337235807429635 0.08277203107277954 -0.6481705892662457 0.0890877340008109 -0.6466898936089736 0.20675177076555407 0.07557390195970547
192250000000.0 0.216471912154951 0.05852313622573713 0.08391001546966877 -0.6488894588049919 0.08468460255074779 -0.6473577102954639 0.20613972572896463 0.07481986538141386
192500000000.0 0.22111234649994638 0.061777892506343426 0.08447529315768229 -0.6480499674058099 0.08212832472677505 -0.6469016618966341 0.20842207995360218 0.07509447998658987
192750000000.0 0.22296428597017467 0.061110126758514106 0.08054896103905271 -0.6483771482018517 0.08004799173292146 -0.6479364903961382 0.21088481441712537 0.07318759720010529
193000000000.0 0.2255732350710286 0.06570322553422753 0.07995569583118894 -0.6490915079704217 0.08110834872001157 -0.6489244725264524 0.21282615530902352 0.07514243166049579
193250000000.0 0.22399444974133947 0.06480634028652132 0.07718730351970113 -0.6493496460465252 0.08001484425904232 -0.6489208917079694 0.21309408776935032 0.07584565274000767
193500000000.0 0.22503315083256334 0.06295958719956231 0.0752368382771759 -0.6482375086659065 0.07765511277526409 -0.6482906230196855 0.21461790245645343 0.07617914924826011
193750000000.0 0.22186150755949485 0.062139718479288834 0.07289861482284778 -0.646939020741832 0.07946796277949217 -0.6472253086529259 0.2143945762446214 0.07668638423885898
194000000000.0 0.21849295873810656 0.06055630106729282 0.07114589510808424 -0.6476092651227405 0.0801418580763688 -0.6473269090251358 0.2149815000711077 0.07697288957734147
194250000000.0 0.21650243954944132 0.05804823856956763 0.07121560388384836 -0.6482430283092196 0.07808233757712664 -0.6485404366311899 0.21323925825216716 0.07492591270352796
194500000000.0 0.21899576577180546 0.056992521791565415 0.0711079909455967 -0.6471708409841774 0.07488617768520214 -0.6485254437572703 0.21212475179470394 0.07330202162674967
194750000000.0 0.21988927830256363 0.05496565285103819 0.07247593067225677 -0.6466093239591706 0.07138503840467704 -0.6484473194734572 0.2109912233119563 0.07187355107366025
195000000000.0 0.2211860485587291 0.05801745370710334 0.07149321145286591 -0.6476322310241778 0.0690885885911495 -0.6482979548410209 0.21188789708918185 0.07249839811003882
195250000000.0 0.22484622095066614 0.061536982335571734 0.06862519377554145 -0.6473255286051915 0.06737667240568926 -0.6493148007855443 0.21474874424270907 0.07129150260462443
195500000000.0 0.22501454049252664 0.06271682519074233 0.0670371363360812 -0.646792201480587 0.06595932238180947 -0.6478558788937108 0.214968053914126 0.06937762453894912
195750000000.0 0.22355283758366093 0.06401968978257323 0.06559787190055372 -0.6462317057138122 0.06620310218067631 -0.647350456757932 0.2172757814067115 0.0702389222727668
196000000000.0 0.22133697695243185 0.06540574962297376 0.06497668798977824 -0.6467230710863916 0.06669851382087956 -0.6476579454213756 0.21926173835852739 0.0711911565867287
196250000000.0 0.21894922909723838 0.06347771308574746 0.06359120292509464 -0.6475493879288547 0.06693579398085495 -0.6484969706976281 0.21650073136384998 0.07259510552381038
196500000000.0 0.21873288007086367 0.06096580455737891 0.06378450062437861 -0.6471810560092975 0.06573243148808006 -0.6475175823191839 0.21535641074240225 0.07227927737293825
196750000000.0 0.2211162249345748 0.061385953052948874 0.0624762415252445 -0.6459793551526285 0.0629342657672752 -0.6476267966192463 0.21505468199929276 0.07245630558294523
197000000000.0 0.2202755934697953 0.06000642392151749 0.06324755535671818 -0.6459102645289996 0.06018615443305148 -0.6479685283113393 0.2142706805133561 0.07289774164649594
197250000000.0 0.2212171471521294 0.06115900205618014 0.06331803533779562 -0.646619812157187 0.05708291029471452 -0.6496662293529633 0.2153185091381829 0.07002801500413956
197500000000.0 0.22343600668050975 0.06367026493918594 0.060537621712635936 -0.6491361060180091 0.0561845693286952 -0.6507565625268592 0.21537460451447166 0.06859021110048141
197750000000.0 0.22336086278509418 0.06895102822757967 0.05606138370584781 -0.6497917490254329 0.05814580513885572 -0.6514185206459908 0.21717117037662254 0.07024018529712923
198000000000.0 0.22235582630115494 0.07122799069415385 0.051233434191179074 -0.6499807250020313 0.06021938147165556 -0.6520849110129595 0.21852846977378965 0.06951381453645224
198250000000.0 0.221348530762856 0.0716313945626099 0.04644209512720521 -0.6492100303367419 0.06265185811821085 -0.6502889494869166 0.22019701098680422 0.07013493789763767
198500000000.0 0.2214544882902878 0.0700815985916355 0.04494728443285946 -0.6465680515737732 0.06132404211328216 -0.6490430391867289 0.2177313549439355 0.07093003248478597
198750000000.0 0.22195382324311114 0.06783171400190638 0.045858637197245915 -0.6460199390989432 0.05934728286182491 -0.6480869721375478 0.21616960543952699 0.07221364478795206
199000000000.0 0.22309400475906763 0.06283389786246381 0.04789464347361926 -0.6472686421465575 0.057518415970222024 -0.6491432304113919 0.21544181693177766 0.07144864942993612
199250000000.0 0.22682879905812814 0.06288392197916402 0.048800148158848644 -0.6456346468031512 0.0510618909272599 -0.6491403755954461 0.21600198877640978 0.07181822025926926
199500000000.0 0.23134349413650723 0.06316406630767371 0.050408473920751574 -0.6450838356733635 0.04958686575302968 -0.6497719360683407 0.2176814439130274 0.0702198311042766
199750000000.0 0.22880729702216443 0.06484262710692676 0.04789977094513345 -0.6462003395933097 0.04776747185419755 -0.6502477638701123 0.22205882908926353 0.06849611347261256
200000000000.0 0.22663941408588872 0.06746167035996165 0.04516954632093767 -0.6473849731947061 0.04717296123045245 -0.650370373049099 0.22120137715090618 0.06992298869804695
200250000000.0 0.2236398742330689 0.07155395366583386 0.04123737682641953 -0.6463652982294561 0.04865668241391878 -0.6498686772634655 0.22074579765651958 0.07054217698546986
200500000000.0 0.22607157917093554 0.07038836970516775 0.03878896541711689 -0.6472338696812621 0.04762923763430446 -0.6499098551363616 0.2204478532676497 0.07051830147893709
200750000000.0 0.222925855763505 0.06761739900941907 0.03853544318801717 -0.6480268579577035 0.04798197517047253 -0.6493363060847638 0.22077995401638517 0.07112218356406452
201000000000.0 0.22501643065229462 0.06631446317224646 0.03835896267807673 -0.6466246834837143 0.04496546113161817 -0.649441121007607 0.22009701752345576 0.07069123579898763
201250000000.0 0.22988537552842847 0.06578050604445139 0.04016194644999985 -0.6468398302281995 0.03998983309160755 -0.6492078074034667 0.21808487502458423 0.06951794649989661
201500000000.0 0.22736898768097843 0.06282179187782212 0.04063585579020494 -0.6446206573595449 0.03635430838894747 -0.6482108802938532 0.2206144203276558 0.07112652749854663
201750000000.0 0.23242558474009312 0.06541831340855944 0.038949815351025575 -0.6444089118127163 0.03517574601869955 -0.647608577256844 0.22085872187104277 0.0697343069492969
202000000000.0 0.2332263395334453 0.06738624635232299 0.03515248331453625 -0.6456649257628662 0.03641284209422264 -0.6491303553226427 0.22372582457901594 0.06974380055747685
202250000000.0 0.23242424347519347 0.0670443133737703 0.030526687788828586 -0.6474905419011812 0.0379774976373083 -0.6481415611413307 0.22383900772852958 0.07032708997360076
202500000000.0 0.23185571759753712 0.06737033090626587 0.02672265239591716 -0.6478660690956318 0.03897275249396896 -0.6481749109286958 0.22371251654127186 0.07151084737023965
202750000000.0 0.22870547005360684 0.0678809683477015 0.02391885427368989 -0.6473214598604922 0.04028650844574473 -0.6471739312984078 0.22463712048526835 0.07181979792618094
203000000000.0 0.23084344676404916 0.06527730617766335 0.025200822141285384 -0.6474450481948252 0.04110987805104796 -0.6466158734877281 0.22439177232807778 0.07333744634262547
203250000000.0 0.23186180463456488 0.06470760135677836 0.025711342807955357 -0.6474032644933903 0.03510652913463502 -0.6479119498497257 0.22430469800628464 0.07252817229788668
203500000000.0 0.2359095376895294 0.06644056363362513 0.027722802189242394 -0.6483048919758959 0.030372387116903887 -0.649083107080162 0.22404762819402899 0.07225168213250403
203750000000.0 0.2343392327042186 0.06330597223314575 0.026288910224394862 -0.648690285898503 0.02454649688137609 -0.6481170365055541 0.2248440947987968 0.07225310827755001
204000000000.0 0.23571637661497524 0.06332585053520494 0.025038371944016532 -0.6493209930520515 0.022865184731756586 -0.6492706700640822 0.226312886075269 0.07285995830477218
204250000000.0 0.23642568499784553 0.0635381310695338 0.022290399835288497 -0.6491167209311683 0.020180320016675822 -0.6496042403456532 0.2280554150668553 0.07227089996489405
204500000000.0 0.23652143516687593 0.0627413773538996 0.020472262036001124 -0.6470972679741718 0.02195767309427042 -0.6471751754401316 0.22722608803285677 0.07272043886301494
204750000000.0 0.23743579756917513 0.061096017969102336 0.016256832547173583 -0.6469998295164031 0.026637771178279458 -0.6473108566597889 0.22678268847998434 0.0733541086837185
205000000000.0 0.23763816571560667 0.058534754427291745 0.012683265235010571 -0.6456115824007582 0.028852384924384106 -0.6470745384173883 0.22506119704945035 0.07338127791757111
205250000000.0 0.23727720495955432 0.055075457952121466 0.01278650428028968 -0.6467583758031954 0.02685958740838285 -0.6476543257398745 0.22499321720347493 0.07236789482132676
205500000000.0 0.2358414917299876 0.05437484290362712 0.01334322431402809 -0.6467969316862435 0.02207490198562089 -0.6460070939045139 0.22491416211809412 0.07193023932686399
205750000000.0 0.235835877247783 0.05413657923108844 0.01508119248686185 -0.6467613401830072 0.022879790880090446 -0.6456990850030905 0.22584114056194154 0.07115952958618517
206000000000.0 0.23760075071656486 0.05550947003213804 0.014840048495226492 -0.6463588545652449 0.020664161712821923 -0.6474537932271881 0.22752615770231416 0.06907623760957025
206250000000.0 0.23658238928339248 0.0568934452231799 0.012553384737114813 -0.64744462215274 0.01819900590205181 -0.6469093677073647 0.22697014107518432 0.07005955239009093
206500000000.0 0.23774972398960573 0.05728518405791692 0.009823233708918326 -0.6469736016811051 0.017447747239924073 -0.647369160308898 0.22610948603637498 0.06977460521624297
206750000000.0 0.23835460606959194 0.05884835792801974 0.007091481806883317 -0.6468781977012872 0.014428839651268725 -0.6470860778718224 0.22882802743381725 0.06982674030286805
207000000000.0 0.23498039445630184 0.05976820058445604 0.00437050343631365 -0.6475562809384353 0.016867743650903953 -0.6466330537944472 0.22942602380428515 0.06889331064782439
207250000000.0 0.23606041933605962 0.055694001778245975 0.0021851595733848963 -0.6470536580232746 0.012995318572228062 -0.6471950358792381 0.22706809245945964 0.06843538135143261
207500000000.0 0.2348450312329699 0.05561680276588914 0.002308458874886902 -0.6451057054740288 0.012001425850922894 -0.645859638260247 0.22526191778168458 0.07049279107722155
207750000000.0 0.2323079846670389 0.05378432415870043 0.002394066942936173 -0.6447714176506361 0.013574641386525038 -0.6453093984686886 0.22446454184966072 0.06885965771599002
208000000000.0 0.2344129729400939 0.054363604677405926 0.005910877143192919 -0.644146921614757 0.011285755094995511 -0.6459234275571715 0.223241216517765 0.070562500210683
208250000000.0 0.2373070388527506 0.05580723712965103 0.005941247299227555 -0.6453355069487923 0.007462276692379002 -0.6455209895590251 0.22479208267190878 0.07027007738081899
208500000000.0 0.23520368165080363 0.0556943878105009 0.007151010254980306 -0.6449893340982998 0.003716325183228154 -0.6461436257681721 0.22956098755646562 0.06877399258778186
208750000000.0 0.23642767264846593 0.0601752266600809 0.005032900588614183 -0.645421212779011 0.0023118404473698264 -0.6447397208199529 0.22529317737055043 0.06839214656224224
209000000000.0 0.2356229007811296 0.06287233039151882 0.004019326794621122 -0.6468444527782866 0.0009250653836660505 -0.6484508315361318 0.22948946852906968 0.06848794918628989
209250000000.0 0.23483641693043952 0.06287599083733232 0.0017579801535662996 -0.6470845334703005 0.0016137858647661532 -0.6475299880583492 0.226139301536076 0.07191513192871349
209500000000.0 0.23532133455417906 0.06301732581633102 -0.0019419731146115096 -0.6479911370713479 0.0028566464213990936 -0.6479147172359133 0.22617432329102713 0.071021601776874
209750000000.0 0.2350669215708502 0.061236980914625816 -0.0027866045191882807 -0.6484926772802297 -2.018300560645437e-05 -0.6489642277344629 0.22616044631364277 0.07101465335664502
210000000000.0 0.23431285990984252 0.062491365560925556 -0.003445967104986204 -0.647985395385048 -0.004243662584859601 -0.6505294032591574 0.22612655491695893 0.06916973292057489
210250000000.0 0.2355839431608103 0.061449360126975286 -0.002409101266625445 -0.6461716398503913 -0.0067283069661864545 -0.6467309697701088 0.22657252889701263 0.06760144508487304
210500000000.0 0.23730403160629077 0.06176032826354575 -0.0010954746034940888 -0.6433988722235937 -0.012272955589717692 -0.6450834635466784 0.22766464479327062 0.06786257626376309
210750000000.0 0.2343893956577966 0.06301072087324816 -0.00044968225635404576 -0.6440348850671613 -0.013915593989953642 -0.644185032136078 0.2269333020508091 0.06997316524075353
211000000000.0 0.23908795628885762 0.06861437344161121 -0.0008228335733641614 -0.6434397509266301 -0.015779130371366985 -0.6448239165138473 0.22538442002418432 0.07030507575707708
211250000000.0 0.23844296910698695 0.06812598978937073 -0.002135346512773802 -0.6449317970544662 -0.013815493063258244 -0.6452246477611797 0.2288324560858442 0.07591801538920755
211500000000.0 0.23733911862069587 0.06892327096140981 -0.00790600570386582 -0.6439523382305493 -0.010436171771366867 -0.6450771058423316 0.23097648282891514 0.07697558947624168
211750000000.0 0.2389544492663784 0.07216678194771611 -0.012060530717313974 -0.6428472239026362 -0.007247219363128045 -0.6445506441560105 0.23327281084240178 0.07421852012375538
212000000000.0 0.23921268538226478 0.07033448559168878 -0.013613657429466764 -0.6430401513732539 -0.007382624430578535 -0.6458994237859352 0.23322370187306585 0.07530620986091516
212250000000.0 0.23908056914889017 0.06865425613842052 -0.01079601093780149 -0.6462044547325398 -0.012765806113880356 -0.645767750081137 0.23479219433811213 0.07332768073716664
212500000000.0 0.23995225134530687 0.06753983299315375 -0.00981638932164418 -0.6445466322510607 -0.017590709464074716 -0.6465418476856917 0.233267086855578 0.07134931198664084
212750000000.0 0.2462890793690334 0.06905438162387738 -0.011831204333673954 -0.6430560571682215 -0.023631940132351856 -0.6447217387594761 0.23504820767389292 0.0734253665552735
213000000000.0 0.24653837567373654 0.06991389164521211 -0.013339552478527835 -0.644475765370746 -0.022566694844323845 -0.6457886777628871 0.23797046950880216 0.0725116597790462
213250000000.0 0.24625545982453506 0.06942700109471178 -0.016259707032733963 -0.6441955974647708 -0.02359953714139927 -0.6433782103547874 0.23758173572945354 0.0694108481732958
213500000000.0 0.25158831620886085 0.06664072283503793 -0.025243187229951135 -0.6409626835720791 -0.016717775125469528 -0.641561100118007 0.23880401260754539 0.07565691798549228
213750000000.0 0.2479606135002682 0.07059231325923972 -0.025602493474425468 -0.6430768086013134 -0.015244178918352745 -0.6426868781123986 0.24058846592442593 0.07725653300071007
214000000000.0 0.24634361524076778 0.07087095452642454 -0.026097752590133697 -0.6407564828725079 -0.017928556458322014 -0.6432575229633632 0.24154267973714483 0.07589591873204392
214250000000.0 0.2461456794881051 0.06928633425686685 -0.025039199352893966 -0.6402863493261852 -0.015270643065030285 -0.6439393651725648 0.23936742883826875 0.070678507606367
214500000000.0 0.24442253667678182 0.06865813071305812 -0.02112196963582902 -0.6406593957819127 -0.017898247312664393 -0.6428000426739134 0.23935201395579703 0.07096423653624402
214750000000.0 0.24682699514479084 0.06532011122881506 -0.01633101147652622 -0.6429338547778211 -0.02464651247305821 -0.6432609888519126 0.24168443191447836 0.07502156771078461
215000000000.0 0.2529945236047263 0.06817292201248329 -0.01663040861771209 -0.644500292730348 -0.027884155899639315 -0.6417650123068944 0.2426386690146452 0.07151580371898962
215250000000.0 0.2582918478361712 0.06508972384853606 -0.019104183038635897 -0.6430433281097454 -0.031074441386951198 -0.6434407574530561 0.2455484510990927 0.07311772349540338
215500000000.0 0.2606129625569292 0.0673306003724953 -0.024677610917805112 -0.6440894361687544 -0.030094092412659965 -0.6440293209872773 0.24856868068090443 0.07463147042698526
215750000000.0 0.2585837533189969 0.067027210939474 -0.02811305191401417 -0.64369115791847 -0.02488284190190614 -0.6453139842116159 0.25017492941946 0.07413644482044363
216000000000.0 0.2599798911605849 0.06354600208176624 -0.03143126838695923 -0.6449877986148845 -0.024716151458604837 -0.6469206623916041 0.24861736385498923 0.07532894398875886
216250000000.0 0.26184771248973643 0.05798251563996518 -0.03268428352416164 -0.6439884452803794 -0.03118655228015416 -0.6440616480570214 0.2471861420968391 0.07495582847656443
216500000000.0 0.25757391898722787 0.05825805410517406 -0.03210349412548824 -0.6435383481692771 -0.03588697871477833 -0.6444143949915554 0.24762057337571358 0.07423708857714896
216750000000.0 0.2564612193534572 0.05382953589474459 -0.027837612755267336 -0.6415560304661391 -0.03914974392984167 -0.6420296057314789 0.24575871516152073 0.07463616875764882
217000000000.0 0.26369041434670776 0.055330994728831163 -0.02689962922402215 -0.6415377772817662 -0.04126454448462435 -0.6421692911459577 0.24937519742612263 0.07441516979767572
217250000000.0 0.2661502635456565 0.05310439777491744 -0.027987371396543295 -0.6413959958253534 -0.04132722622904865 -0.6404329083402858 0.25306392340846007 0.07318833769985437
217500000000.0 0.2672800589134945 0.06132923216499765 -0.029725932943193995 -0.6447944474703773 -0.044760377052686186 -0.6457839790038332 0.2572792409734828 0.07640330801746932
217750000000.0 0.2653371417294028 0.05648812308833904 -0.03323954408478557 -0.6458082020704504 -0.04479163370669919 -0.6465236092600577 0.2655656143439079 0.07770865389550906
218000000000.0 0.26406540675888823 0.05667868734129412 -0.03999260244061561 -0.6458972384719409 -0.04174545338016887 -0.6438041664846456 0.267491345438709 0.07342134977681467
218250000000.0 0.26299254226296825 0.055021000419048144 -0.042374901947273474 -0.6449872454653971 -0.03607959499639192 -0.6451418619846054 0.26025506206897797 0.07527394071402457
218500000000.0 0.2630710606822366 0.05144478331859107 -0.04263323686164737 -0.6437138774811157 -0.037964269192009764 -0.6425997894156594 0.26028097013872703 0.07297803555606318
218750000000.0 0.2663007805103519 0.04553843060890136 -0.043595947038189684 -0.6397463978550079 -0.04203953199868443 -0.6423497922888822 0.2608307762465729 0.07136633303175884
219000000000.0 0.27110020526843265 0.04516638079992793 -0.041682033169218216 -0.6417596693207296 -0.04814121294021695 -0.6408758019103715 0.2546164282075038 0.07096745699053048
219250000000.0 0.27358779967138064 0.04194617108371824 -0.0404289322696529 -0.6411146437650612 -0.05332076018839816 -0.6426639886394534 0.2582779713708931 0.06793053542547489
219500000000.0 0.2726313605696389 0.04930284936218953 -0.04200766468494684 -0.6434800170753139 -0.05299738700016315 -0.6440202328498936 0.26009212842762314 0.06937918055267257
219750000000.0 0.26520125174145653 0.0504046425869958 -0.04205908090108497 -0.6451091618163174 -0.05223835444905527 -0.6455550482956764 0.2630616033064196 0.07144435388282737
220000000000.0 0.2635006161390498 0.05198432995153858 -0.04540077071307525 -0.6448675251348702 -0.05210932297059659 -0.6426923169279449 0.26456388640609296 0.0677097798841214
