!Created with skrf (http://scikit-rf.org).
# Hz S RI R 50.0 
!freq ReS11 ImS11 ReS21 ImS21 ReS12 ImS12 ReS22 ImS22
2500000000.0 0.074306955492 0.013423875195 0.6413408347 -0.013628978276 0.64155572726 -0.013679916896 0.074167051639 0.013094995407
2750000000.0 0.074664502338 0.012441351601 0.64120891655 -0.014613106604 0.64143728831 -0.014666380124 0.074268732637 0.012163680171
3000000000.0 0.074443324462 0.011766366499 0.64120591664 -0.01559769209 0.64146774516 -0.015661329311 0.074002514889 0.01168919526
3250000000.0 0.074599758307 0.011882363378 0.64111884503 -0.016805495054 0.64146452414 -0.016859636233 0.074038611037 0.0119218931
3500000000.0 0.074450578593 0.011577226777 0.64105319198 -0.017840224896 0.64138520835 -0.017917645645 0.074432678392 0.011584119211
3750000000.0 0.074726194487 0.011747343702 0.64100716877 -0.018970928874 0.64128453631 -0.01899085941 0.074610797692 0.011442296513
4000000000.0 0.075037821214 0.01192325479 0.64108820235 -0.020006387172 0.64131068391 -0.020045062288 0.074869573777 0.011511422826
4250000000.0 0.075281477676 0.01181842577 0.64085772362 -0.021348484578 0.64111245236 -0.021344923417 0.075008026918 0.011470707727
4500000000.0 0.075500937426 0.011925911026 0.64081015031 -0.02239039102 0.64108996491 -0.022441513782 0.075171505161 0.011464645004
4750000000.0 0.075950360667 0.012182153153 0.64070777116 -0.023572328572 0.64098807079 -0.023594088816 0.075271313805 0.011581649899
5000000000.0 0.076520446124 0.012150592274 0.64062549718 -0.024770059554 0.64096045352 -0.024742926948 0.075333358487 0.012248605046
5250000000.0 0.076695486665 0.012130534734 0.64041067177 -0.026046335646 0.64071142388 -0.025927051655 0.076818169779 0.012733460836
5500000000.0 0.077321466259 0.01213829314 0.6402029534 -0.02714067697 0.6404618816 -0.027093052901 0.077708069799 0.012413136493
5750000000.0 0.07763905349 0.011541102377 0.64025666565 -0.027976416518 0.64046095618 -0.028040845251 0.077517188147 0.011228313464
6000000000.0 0.077497165797 0.011130633316 0.64004203093 -0.029139654775 0.6402139423 -0.029223159855 0.077696733339 0.01100182145
6250000000.0 0.077298879843 0.011208741477 0.64014383638 -0.030223427764 0.64034150782 -0.03018077687 0.077394411411 0.010504718636
6500000000.0 0.077409025816 0.01139888737 0.64008337728 -0.031356365642 0.64028472039 -0.031286196208 0.077120356707 0.011115846618
6750000000.0 0.077651809599 0.011612463022 0.64004952501 -0.032809453731 0.64029116673 -0.032817126227 0.077566841963 0.011419641385
7000000000.0 0.07731012716 0.011545972164 0.63960614527 -0.033779282046 0.63985559094 -0.033803288216 0.077391515862 0.01106709993
7250000000.0 0.078113753533 0.011609599711 0.63991527213 -0.034657880249 0.64020366642 -0.034780343067 0.077858614522 0.011433991498
7500000000.0 0.077998392467 0.011370078417 0.63974567161 -0.035990503172 0.64005891895 -0.035925142014 0.078167094347 0.011115158726
7750000000.0 0.078082502127 0.011711144516 0.63958172448 -0.037294764681 0.63991008071 -0.037285599992 0.078093423017 0.011283537608
8000000000.0 0.078087921196 0.011585650362 0.63958106063 -0.038402999735 0.63990244586 -0.038331064816 0.078113810171 0.011295741278
8250000000.0 0.07774592262 0.011707231531 0.63942467851 -0.039651402361 0.63977504469 -0.039546888816 0.078174525992 0.011390283026
8500000000.0 0.07794115721 0.012535410873 0.63942900618 -0.040666714385 0.63972112639 -0.040649895209 0.078258617359 0.01171072873
8750000000.0 0.079011323156 0.012682761598 0.63917201301 -0.041891651594 0.63950665329 -0.041844365714 0.079071172471 0.011681362616
9000000000.0 0.078322879337 0.012322247904 0.63912115535 -0.042883017385 0.6394037501 -0.042858992394 0.078592077609 0.011213975744
9250000000.0 0.078974459947 0.012694900223 0.63917784974 -0.044360855468 0.63946967156 -0.044291966539 0.078663117369 0.011939509623
9500000000.0 0.079291952585 0.012866590037 0.63882190921 -0.045760339197 0.63916285739 -0.045458353791 0.079083559788 0.011581639695
9750000000.0 0.079049025671 0.012375143798 0.63860481507 -0.046707425222 0.63892884194 -0.046413531089 0.078826221755 0.011948437615
10000000000.0 0.079832988756 0.012524789008 0.63883115543 -0.047470827191 0.63914322333 -0.047326541244 0.079017080891 0.012941321488
10250000000.0 0.079506433885 0.013143786587 0.63875072818 -0.048915230826 0.63910090568 -0.048956021074 0.079674207301 0.012595228731
10500000000.0 0.079578736704 0.013042257301 0.63841319554 -0.049964537925 0.63879349901 -0.049829933457 0.080165803795 0.012032071386
10750000000.0 0.080313052188 0.013048606571 0.63844307466 -0.051483638398 0.63881455301 -0.051100556111 0.079726073173 0.012736859658
11000000000.0 0.079698098895 0.013523584271 0.63810957501 -0.052193890815 0.63843511162 -0.052183958709 0.080610311828 0.012878513299
11250000000.0 0.08006485981 0.013664204357 0.63841546944 -0.052928830584 0.63868645397 -0.053024044128 0.08083013622 0.012067645127
11500000000.0 0.081154310375 0.013471262944 0.63822163517 -0.054379113759 0.63845537015 -0.054912504559 0.080364790598 0.011880339594
11750000000.0 0.081032482114 0.013541086596 0.63783772448 -0.055566824153 0.63806656853 -0.055921757712 0.08068476158 0.013231446473
12000000000.0 0.081118850438 0.012968872195 0.63768768203 -0.05716793345 0.63796215658 -0.057254608648 0.080612801211 0.012527185683
12250000000.0 0.081789410899 0.012807429721 0.63787683176 -0.057889155257 0.63819240274 -0.057714592101 0.081340256164 0.01221651893
12500000000.0 0.081117057663 0.012815238337 0.63812787534 -0.058745896894 0.63841905208 -0.058870619972 0.081074066403 0.012609415107
12750000000.0 0.081401663866 0.013329779969 0.63709470714 -0.060559745413 0.63746008754 -0.060348136247 0.082084826245 0.012042504294
13000000000.0 0.081067567339 0.013174434116 0.63690132016 -0.061174135489 0.63705301115 -0.061036438907 0.081669191074 0.011950044894
13250000000.0 0.081433753711 0.012565243355 0.63719044823 -0.062380378352 0.63737753998 -0.062269837082 0.081741493602 0.012212134414
13500000000.0 0.08105670018 0.013234391822 0.6374932516 -0.064090485849 0.6376730792 -0.063329487731 0.081837784489 0.010953790691
13750000000.0 0.081310804661 0.013371177801 0.63735981324 -0.065426472462 0.63764048145 -0.064431199747 0.08070486049 0.011105530164
14000000000.0 0.081459084109 0.013227566064 0.63724127567 -0.067258422641 0.6374942425 -0.066501739622 0.080765636171 0.012444993145
14250000000.0 0.081035498024 0.013573869525 0.63670166001 -0.067713067416 0.63683495643 -0.067282828954 0.081177278444 0.012042333484
14500000000.0 0.081274564225 0.013564341074 0.63677275838 -0.068173132432 0.63686992176 -0.068340872127 0.080952988105 0.010835920169
14750000000.0 0.08002131119 0.013207712486 0.63664946553 -0.069731918149 0.63678547806 -0.070117179084 0.080983047769 0.011271142944
15000000000.0 0.080284791144 0.01406942828 0.6355983335 -0.070039273391 0.63590156241 -0.06967566802 0.080090994931 0.011598348714
15250000000.0 0.080238099829 0.015365832302 0.6368279283 -0.071091442337 0.6370916283 -0.070997738248 0.079603457376 0.011786394547
15500000000.0 0.080101975869 0.015097977472 0.63652668796 -0.072098360881 0.63675849944 -0.072211294565 0.079282876388 0.012196906106
15750000000.0 0.080245610303 0.016240234425 0.63640542161 -0.073699761142 0.63656776422 -0.074064828544 0.079089180081 0.012746571844
16000000000.0 0.080662411712 0.016387913811 0.63676276849 -0.075069209407 0.63692320909 -0.075371221869 0.079828799053 0.013700832127
16250000000.0 0.080800156232 0.015062907491 0.63604533107 -0.077043662475 0.63630310085 -0.076763712675 0.079668694558 0.013982764423
16500000000.0 0.081208400196 0.016229551871 0.63571513049 -0.078946893014 0.63593342924 -0.07881731012 0.08051522101 0.013849899491
16750000000.0 0.079448794805 0.017087474621 0.63467767089 -0.079116216736 0.63484659688 -0.079193109453 0.079365704819 0.014798737635
17000000000.0 0.080537652657 0.015697985262 0.63574732835 -0.079214211771 0.63598752234 -0.079105479483 0.080608025357 0.01293621881
17250000000.0 0.081234861773 0.017112386446 0.63431632612 -0.080801583021 0.63456236929 -0.080858790615 0.07877206036 0.014117608899
17500000000.0 0.080335128155 0.017388221481 0.63474537857 -0.081059313293 0.6350379877 -0.08097153511 0.079205373918 0.014244564598
17750000000.0 0.080346024583 0.017853920428 0.63521646609 -0.082879051468 0.6355677167 -0.082415909103 0.079025060332 0.013833059333
18000000000.0 0.080716939798 0.018567607214 0.63645912161 -0.084538250894 0.63679113023 -0.08463080312 0.078603005936 0.015852549384
18250000000.0 0.080745265889 0.018668285013 0.63521381306 -0.086303788697 0.63559719394 -0.086120126466 0.079288221002 0.016295386649
18500000000.0 0.080842455036 0.020198968437 0.63484063164 -0.087173881295 0.63512815721 -0.087073029331 0.080231165785 0.016132430078
18750000000.0 0.082889312535 0.018182097601 0.6330399638 -0.088636724983 0.63327432537 -0.088833451122 0.081653724599 0.015523968045
19000000000.0 0.08086130702 0.019557631089 0.63406367659 -0.088833794995 0.6342785789 -0.089149085708 0.079579056971 0.016778145143
19250000000.0 0.082313468115 0.01964729202 0.63340461751 -0.089797398838 0.63359570329 -0.08990594573 0.081713995956 0.01616205325
19500000000.0 0.081960592218 0.020482909648 0.63437950453 -0.092002232919 0.63459893126 -0.092140393498 0.082031912184 0.016175803538
19750000000.0 0.082854761047 0.019888759808 0.63324076941 -0.092319661829 0.6334102514 -0.09266625613 0.079883480767 0.016787614521
20000000000.0 0.083371523826 0.021561211703 0.63223653983 -0.09339335788 0.63240078786 -0.093755973267 0.07928442872 0.016091290841
20250000000.0 0.081162103257 0.020736500197 0.63256260917 -0.094984592976 0.63275710233 -0.095172662075 0.078547233644 0.017941698785
20500000000.0 0.083151850008 0.021960973023 0.63391344288 -0.096686687694 0.63425337587 -0.096178730888 0.079351261293 0.018168180967
20750000000.0 0.083372477123 0.021282542705 0.63265165119 -0.097048006018 0.63301453243 -0.096779990782 0.080581638467 0.018985834092
21000000000.0 0.083079899271 0.02170247321 0.63236988986 -0.098526760058 0.63268532663 -0.0986004637 0.07944467291 0.017387410281
21250000000.0 0.082741355951 0.021376573892 0.6324893877 -0.099432743818 0.63273894598 -0.099544937184 0.081528342147 0.020013668006
21500000000.0 0.083102415335 0.021958381615 0.63176835355 -0.10032285951 0.63197134485 -0.10053604502 0.08150473193 0.018749257226
21750000000.0 0.084420990301 0.022611201945 0.63145208274 -0.10115965901 0.63158429662 -0.10159085763 0.081058788405 0.017482864669
22000000000.0 0.084214571102 0.023005619559 0.63270653747 -0.10287892838 0.63283387645 -0.10366119989 0.080995656802 0.019247386533
22250000000.0 0.083407848766 0.021749092526 0.63049683593 -0.10434763815 0.63072045061 -0.10439398795 0.082073682628 0.018942836164
22500000000.0 0.08423395431 0.023334956146 0.63054466948 -0.10552837538 0.63084030371 -0.10543751785 0.08121304206 0.017937127553
22750000000.0 0.085438764983 0.024273104922 0.63061507976 -0.10650610393 0.63101667671 -0.10629497314 0.080971436405 0.020452121786
23000000000.0 0.085635257393 0.022548155666 0.63048666053 -0.10737339752 0.63078874702 -0.10773656085 0.081394210766 0.019359614677
23250000000.0 0.086063224236 0.0221671924 0.6297667506 -0.10782560188 0.63001597481 -0.10852490955 0.081184673286 0.019737476682
23500000000.0 0.085757240792 0.022900557134 0.62919980963 -0.10930116657 0.62954531997 -0.10958798573 0.082273898862 0.019808315245
23750000000.0 0.085276946854 0.023733673973 0.6304069942 -0.10971501174 0.63069507082 -0.1104285766 0.082630871161 0.020484461273
24000000000.0 0.085457349529 0.023530277931 0.62964463253 -0.11257546383 0.62992093995 -0.11301108447 0.082627261348 0.020595301401
24250000000.0 0.086987023602 0.026116651043 0.62845529203 -0.11325399099 0.62862518304 -0.11382074499 0.082850650773 0.020682533462
24500000000.0 0.088862000536 0.023642772094 0.6277752067 -0.1143645301 0.62802518256 -0.11471029657 0.084226679589 0.021507418452
24750000000.0 0.086908217532 0.022245217877 0.62837118691 -0.11489238749 0.62867884412 -0.11509808442 0.083589442271 0.018965943774
25000000000.0 0.086798769706 0.023312339745 0.62730635866 -0.11699957291 0.627699643 -0.11669698356 0.082953986279 0.01979281858
25250000000.0 0.088076754691 0.023602592357 0.62741946695 -0.11770448616 0.62773744992 -0.11773572781 0.082864269957 0.019944983664
25500000000.0 0.087934159884 0.022386350062 0.62750249169 -0.11901555093 0.62786302835 -0.11899670056 0.082651902847 0.020846459465
25750000000.0 0.088890151921 0.021979312394 0.62568993818 -0.11972408874 0.62608336656 -0.11967782639 0.082347082361 0.021507239636
26000000000.0 0.08789235936 0.02326277224 0.62618353585 -0.12074352354 0.62657074416 -0.12088816024 0.08470927991 0.020876870771
26250000000.0 0.088921559772 0.023889402966 0.62743428914 -0.12095609124 0.62781661881 -0.12092487307 0.08318360386 0.021571304215
26500000000.0 0.089001958364 0.020232001298 0.62642131192 -0.12218659077 0.62681963149 -0.12239699686 0.083300782325 0.02022757807
26750000000.0 0.087332493659 0.02183979761 0.62641287835 -0.12397968928 0.62682346541 -0.12414970734 0.084032721573 0.020603836879
27000000000.0 0.087321877353 0.022840943461 0.62615486752 -0.12472212824 0.62650643612 -0.12484303869 0.083435166252 0.021488127748
27250000000.0 0.088189271218 0.022258366883 0.6270906454 -0.12576129942 0.62749394766 -0.12591771813 0.084005877111 0.020299964931
27500000000.0 0.087837079973 0.02270972027 0.62609879549 -0.12685643418 0.62630140693 -0.12748964038 0.082955762134 0.020332972134
27750000000.0 0.086983185533 0.022421551308 0.62525933931 -0.12915988818 0.62562764147 -0.12904342122 0.083334105216 0.021642302815
28000000000.0 0.087869768146 0.023037493538 0.62447845584 -0.12963905788 0.62486805761 -0.12965203201 0.08347757857 0.022002529213
28250000000.0 0.086906120657 0.022142000037 0.62405043467 -0.13046677762 0.62446416053 -0.13028726979 0.083248243758 0.021912153747
28500000000.0 0.086916237113 0.022858436101 0.62461160447 -0.131634598 0.62488422981 -0.13181635396 0.083538871358 0.022936092766
28750000000.0 0.087686634758 0.022299122555 0.62357832162 -0.13251263896 0.62379010914 -0.13300530288 0.083344801515 0.022519255278
29000000000.0 0.086489799036 0.023203039178 0.6231758344 -0.13308611308 0.62350782484 -0.1332645578 0.084059833824 0.022649102281
29250000000.0 0.088205488115 0.023567835769 0.62389490354 -0.13503906487 0.6242501165 -0.13507826823 0.084276278001 0.022562121212
29500000000.0 0.087220724345 0.022225032425 0.62333168392 -0.13457420078 0.62371478254 -0.13494360839 0.085566286409 0.022139916202
29750000000.0 0.086864097921 0.023007119026 0.62302334983 -0.13743418739 0.62341677194 -0.13757577672 0.084357778595 0.023187464016
30000000000.0 0.088078208343 0.02289013721 0.62319055269 -0.13829517581 0.62350805844 -0.13853547221 0.085176531082 0.023319894346
30250000000.0 0.088026247545 0.023723957028 0.62332682083 -0.14023450312 0.62368246297 -0.13995994033 0.084845375973 0.023990421958
30500000000.0 0.087276070931 0.022745881087 0.62202235893 -0.14137073394 0.62247198367 -0.14112616613 0.085002155203 0.023566972531
30750000000.0 0.086968666599 0.022524178795 0.62108865812 -0.14258467917 0.62137639518 -0.14286882935 0.084538503131 0.024066876105
31000000000.0 0.087868704794 0.023504554996 0.6205514434 -0.14271583602 0.62075601838 -0.14299803264 0.084858187227 0.024778284992
31250000000.0 0.087453786926 0.024208632976 0.6209522396 -0.14306648679 0.62124283191 -0.14325929948 0.08575666196 0.025843876217
31500000000.0 0.08739809822 0.023735687633 0.62159787229 -0.14467473484 0.62187587239 -0.1446716246 0.086216538834 0.024883728072
31750000000.0 0.087866432255 0.023768196461 0.6202356035 -0.1457592337 0.62053233657 -0.14570580378 0.085959003972 0.024226713122
32000000000.0 0.086989036324 0.023917390946 0.6210000638 -0.14638420875 0.62136044721 -0.14623689538 0.086317869403 0.024877431307
32250000000.0 0.086294471763 0.02415554217 0.62044496285 -0.14828557475 0.62077173464 -0.14842247564 0.086502046611 0.024621979619
32500000000.0 0.086791897109 0.023892512532 0.61911428982 -0.14945735959 0.61930703227 -0.14972919744 0.087024215731 0.024953353109
32750000000.0 0.087814847255 0.02385989753 0.62023331722 -0.14935808301 0.6203801605 -0.14964906591 0.086591775743 0.025065042034
33000000000.0 0.086280900537 0.024194665284 0.62046077653 -0.15176366051 0.62065377626 -0.15224536473 0.086554956072 0.025451165406
33250000000.0 0.087175661867 0.024450775803 0.61948966385 -0.1520011642 0.61969081542 -0.15259782724 0.087092591364 0.025393192379
33500000000.0 0.087151009066 0.025919846726 0.619982044 -0.15394778475 0.62013047704 -0.15453810955 0.087484552286 0.026356609191
33750000000.0 0.087294615764 0.025617455897 0.61827480651 -0.15584828613 0.61845668394 -0.1561769031 0.088035253564 0.026829272207
34000000000.0 0.087478556413 0.025631847771 0.61802050926 -0.15695683129 0.61828241494 -0.1568634981 0.087933258335 0.026109948003
34250000000.0 0.088052753102 0.02593502895 0.6168047533 -0.15665255287 0.61703851056 -0.15688882596 0.087878674921 0.025656540038
34500000000.0 0.087380354012 0.0261119209 0.61729579139 -0.15731184601 0.6175972832 -0.15751089215 0.087536509597 0.026346591371
34750000000.0 0.086986249628 0.026279530296 0.6180339092 -0.1581733991 0.61837726662 -0.15824721224 0.088498237077 0.025852844422
35000000000.0 0.088508905123 0.026015700498 0.6168783522 -0.16056914973 0.61727326041 -0.16009802861 0.089561821734 0.026132544454
35250000000.0 0.088505065008 0.02768019481 0.61707819094 -0.16172413607 0.61739393868 -0.16167274479 0.088852114658 0.02676565761
35500000000.0 0.088445641935 0.026181984994 0.61670443498 -0.16320081908 0.61704474996 -0.16272734271 0.088832401262 0.026376390291
35750000000.0 0.088222108573 0.026610475341 0.61684345946 -0.16438720052 0.61721308761 -0.16358498934 0.088872848835 0.025601676898
36000000000.0 0.087785421899 0.027122450756 0.61589328091 -0.1654915482 0.61610093142 -0.16531982785 0.089079253093 0.026270251764
36250000000.0 0.088078697078 0.026953345632 0.61491384666 -0.16632134931 0.61508507856 -0.16625075472 0.08882776205 0.025523211647
36500000000.0 0.088949266446 0.02808060503 0.61462361499 -0.16759560074 0.61475511558 -0.16770247162 0.089623026615 0.027469985862
36750000000.0 0.089064089334 0.026754451144 0.61401431605 -0.16783793777 0.61412950342 -0.16813198814 0.089199010642 0.024432467645
37000000000.0 0.088773931537 0.027557869365 0.61425034576 -0.16889030101 0.61440292676 -0.16912058652 0.088451726998 0.02622629275
37250000000.0 0.089201595514 0.027241531798 0.61378580802 -0.17027141246 0.61390542902 -0.17057469111 0.088951433303 0.026257668777
37500000000.0 0.089157095541 0.027825213343 0.61430144495 -0.17168012759 0.61439554721 -0.17185903903 0.088623137904 0.027290903878
37750000000.0 0.088961048556 0.028111359148 0.61444157815 -0.17201665104 0.61452786091 -0.17235183875 0.088875451076 0.027732872104
38000000000.0 0.090001614662 0.027251378051 0.61316978335 -0.17348613696 0.61337416627 -0.17343069337 0.089376124485 0.026686969377
38250000000.0 0.089615845688 0.027838547605 0.61337876223 -0.17468226234 0.61370147582 -0.17425569049 0.089760935232 0.027008720074
38500000000.0 0.088474422408 0.027507977815 0.61301885531 -0.17627970352 0.61332979784 -0.17587349167 0.089370830564 0.027166350731
38750000000.0 0.089005624235 0.029002169403 0.61175659259 -0.17744103874 0.61196866853 -0.17702444007 0.08927636261 0.027501540265
39000000000.0 0.088535884099 0.029067997212 0.61138056185 -0.17781626246 0.61161408592 -0.17773394552 0.090052441679 0.026835686689
39250000000.0 0.090045753596 0.029198363385 0.61130297016 -0.17925006855 0.61153813341 -0.17922890583 0.089642112518 0.027527846385
39500000000.0 0.090692596413 0.029578100993 0.61119792093 -0.17970788762 0.61132500883 -0.17957624544 0.090289955415 0.026587070798
39750000000.0 0.089084483488 0.028454871995 0.61132055411 -0.18162026206 0.61150736529 -0.18172372007 0.089532617469 0.027440430384
40000000000.0 0.090719292609 0.028904060613 0.60939325944 -0.18175030457 0.60947304554 -0.18221220017 0.089926558588 0.027001922033
40250000000.0 0.089174818247 0.029518039435 0.61066942436 -0.18217736782 0.6107463163 -0.18260002958 0.089261900073 0.02791076405
40500000000.0 0.089613885306 0.03064669324 0.61013449738 -0.18496712063 0.61003926163 -0.18544850542 0.090301220373 0.028837013477
40750000000.0 0.090630854087 0.029537940241 0.60944145036 -0.18483631647 0.60932454795 -0.18538791245 0.091257327937 0.027849879243
41000000000.0 0.090594328517 0.02995423504 0.60878023515 -0.18613425233 0.60887485498 -0.18632972509 0.090177462784 0.027507708405
41250000000.0 0.090226919808 0.030580556521 0.60911648072 -0.18688445525 0.60920270092 -0.18689038042 0.090150806446 0.02713413972
41500000000.0 0.09013340935 0.030437400642 0.60954377269 -0.18830297366 0.60956358723 -0.18829323709 0.089316295092 0.028221293632
41750000000.0 0.091769480358 0.031570286744 0.60834789624 -0.19001217385 0.60842953479 -0.18984922496 0.090595440601 0.028636465183
42000000000.0 0.090463176548 0.03144209874 0.60833651336 -0.19161554471 0.60859526625 -0.19119437567 0.089735177151 0.028864831749
42250000000.0 0.090783693345 0.030716790615 0.6073674976 -0.1927140346 0.60768668379 -0.19210622482 0.089970128445 0.0290908622
42500000000.0 0.091640192096 0.03262980448 0.60807090351 -0.19416237317 0.60856378351 -0.19299390935 0.091008616623 0.029271791976
42750000000.0 0.091773991862 0.032404251958 0.60622069806 -0.19438544998 0.60658142353 -0.19376545444 0.089872148039 0.028358865887
43000000000.0 0.091976831359 0.032455338034 0.60632534575 -0.19626399443 0.60640755751 -0.19573751461 0.090732332641 0.030002301059
43250000000.0 0.092176839322 0.031351985863 0.60516411658 -0.1965650398 0.6051719592 -0.19678514284 0.090970111771 0.029415572226
43500000000.0 0.092216908041 0.031870540404 0.60550635571 -0.19771143128 0.6056700965 -0.19789106113 0.090831180064 0.029506612538
43750000000.0 0.090822482992 0.03276484623 0.60516629366 -0.19757344809 0.60509978131 -0.1981485474 0.091127639802 0.029826786598
44000000000.0 0.092186530608 0.031874968804 0.60598630374 -0.19938686176 0.60597802781 -0.19981011778 0.090690573588 0.029627943072
44250000000.0 0.092881817215 0.033345003464 0.60558276365 -0.20085061271 0.60550011291 -0.20154096216 0.091535744155 0.03062909704
44500000000.0 0.091798466998 0.031601564238 0.60449710864 -0.20182180702 0.60422427697 -0.2029554599 0.091893344136 0.030878785771
44750000000.0 0.092653080906 0.031460262985 0.60359092268 -0.20284810912 0.60347210154 -0.20384738848 0.091598470633 0.029956934223
45000000000.0 0.091751563539 0.034827443465 0.60378659564 -0.20456139212 0.60369970299 -0.20531889339 0.091365821118 0.030434353445
45250000000.0 0.092948400043 0.03312437865 0.60352391408 -0.20603181235 0.60356485216 -0.2065985553 0.091402193558 0.031518639061
45500000000.0 0.094101776806 0.033687904282 0.6029045237 -0.20671639788 0.60301058336 -0.20658332827 0.0913796731 0.031104648907
45750000000.0 0.094436915716 0.03345844097 0.6016853871 -0.20771519169 0.60183289056 -0.20761706757 0.093280461062 0.031612448791
46000000000.0 0.093840612686 0.033313263491 0.6024873436 -0.20892847074 0.60258498573 -0.20884923447 0.092021908399 0.031070283905
46250000000.0 0.093733063729 0.033994395029 0.60089899452 -0.21073540347 0.60118454799 -0.21026331933 0.092089042586 0.031517422354
46500000000.0 0.093517424353 0.033755377209 0.6015163372 -0.2117484845 0.60181849068 -0.21139714015 0.092023201661 0.032269103027
46750000000.0 0.093753865259 0.033905002492 0.60044544854 -0.21234266031 0.60080532802 -0.21148048601 0.093145972074 0.03174531643
47000000000.0 0.094062906047 0.034488031878 0.59938427905 -0.21420926092 0.59974896637 -0.21319749671 0.094056155689 0.03139761368
47250000000.0 0.093378910562 0.034743135223 0.6003377008 -0.21531081765 0.60076954197 -0.21437300977 0.092226737871 0.031572466397
47500000000.0 0.093860578265 0.034988002397 0.59843860036 -0.21594240458 0.59847746662 -0.21614550433 0.09368379129 0.031744697952
47750000000.0 0.094515614141 0.03489976999 0.59906004551 -0.21664367413 0.59926689863 -0.21659508345 0.092784277922 0.031061338827
48000000000.0 0.094808304328 0.034748440948 0.59898555596 -0.21750395438 0.59910320033 -0.21765672641 0.093363267985 0.031902014533
48250000000.0 0.094457387172 0.03420683697 0.59826734788 -0.21877950017 0.59809340842 -0.21935018768 0.093027393538 0.032265888643
48500000000.0 0.095300711059 0.036147450926 0.59726655975 -0.22062869304 0.59705731989 -0.22143172465 0.092830507389 0.0321119986
48750000000.0 0.095990755749 0.034112920824 0.59667593279 -0.22093169096 0.59660770867 -0.22176316324 0.094269028657 0.032202566199
49000000000.0 0.096625555755 0.034375413851 0.59554812782 -0.22169954054 0.59539823831 -0.22230846634 0.094335085107 0.031420888794
49250000000.0 0.095253297888 0.03473129959 0.59566071139 -0.22280949298 0.59559292024 -0.22333714091 0.094149625331 0.031785826111
49500000000.0 0.09610186703 0.034586461828 0.59506467719 -0.22355975219 0.59517627667 -0.22381266513 0.093779995939 0.031624548591
49750000000.0 0.096198058086 0.035626716003 0.59542920725 -0.22534837926 0.59554246511 -0.22541551209 0.094028816376 0.03215086905
50000000000.0 0.096566858886 0.035586599418 0.59491135161 -0.22748810493 0.59527899833 -0.22696336019 0.094302699016 0.032335006833
