!Created with skrf (http://scikit-rf.org).
# Hz S RI R 50.0 
!freq ReS11 ImS11 ReS21 ImS21 ReS12 ImS12 ReS22 ImS22
2500000000.0 0.053530075529 0.020516963593 0.29870505821 -0.0052822832916 0.29900808043 -0.0052712703553 0.051200417699 0.020127596447
2750000000.0 0.054119227911 0.018967687588 0.29867319911 -0.0056898320678 0.29896939019 -0.0056938722378 0.05138677889 0.018639038547
3000000000.0 0.05368016926 0.017792538255 0.29864285921 -0.0060968417739 0.29895002385 -0.0061095630671 0.050968871197 0.017759499315
3250000000.0 0.053888543571 0.018039965332 0.29864887127 -0.0065630885938 0.2989419028 -0.0065845465796 0.050988603152 0.01814311484
3500000000.0 0.053670639335 0.017478474837 0.29859941648 -0.0069900497254 0.29891144846 -0.0070107946008 0.05152804056 0.017534990394
3750000000.0 0.054110653207 0.017785215186 0.29857551588 -0.0074607886044 0.29887244277 -0.0074484856806 0.051760482273 0.017360368582
4000000000.0 0.054582454159 0.017933448493 0.29855682392 -0.0078137782526 0.29886481832 -0.0078066462521 0.052122558413 0.017452279811
4250000000.0 0.055045836604 0.017776741129 0.29851249086 -0.0083145515507 0.29883578722 -0.008297181605 0.05251053519 0.017386567466
4500000000.0 0.055322113336 0.017811186591 0.29852038974 -0.0087185525918 0.29886550592 -0.0087272906856 0.052700082271 0.017278859432
4750000000.0 0.055905521945 0.018216623976 0.2985364564 -0.0092079470535 0.29885417756 -0.009190023996 0.05282675212 0.017444022988
5000000000.0 0.056685110648 0.018168347917 0.29853134819 -0.0097125579959 0.29885964546 -0.0096934664493 0.052836852398 0.018356548562
5250000000.0 0.057048127103 0.018309577919 0.29849363678 -0.010243874301 0.2987753809 -0.010170552287 0.054970667005 0.019241408915
5500000000.0 0.058083363862 0.018435589822 0.29840258053 -0.010722423859 0.29870996637 -0.010681461063 0.056329165269 0.018872906205
5750000000.0 0.058695870595 0.017264325177 0.29838741517 -0.011036802977 0.2986895439 -0.011045186585 0.056231647832 0.017058528207
6000000000.0 0.058481996851 0.0165721265 0.29826528092 -0.011581065381 0.29857718407 -0.011610651262 0.056600377358 0.016473139831
6250000000.0 0.058000662153 0.016681023675 0.2982893191 -0.011925710437 0.29860058746 -0.011903107755 0.055845798946 0.015889447958
6500000000.0 0.058376676455 0.017096930472 0.29832388761 -0.012461543961 0.29862771339 -0.012435552378 0.055613272778 0.016678609938
6750000000.0 0.058664784791 0.017348737368 0.29828575727 -0.012867816277 0.29859554671 -0.012877736224 0.056319609517 0.017315440815
7000000000.0 0.058649563584 0.017134465268 0.29819980325 -0.013336968611 0.29852912654 -0.013359715247 0.056379692564 0.016647966912
7250000000.0 0.059271833983 0.017010113665 0.29830339191 -0.013630622553 0.29863791 -0.013696835868 0.056639141701 0.016987708134
7500000000.0 0.059148743165 0.016902550613 0.29825966205 -0.014172383712 0.2985947396 -0.01417219371 0.057176385467 0.016708809675
7750000000.0 0.059354186276 0.017553269594 0.29826109053 -0.014726330587 0.29859042066 -0.01474087561 0.057066422827 0.017070576495
8000000000.0 0.059648093232 0.017297860478 0.29829676499 -0.015199557422 0.29862949377 -0.015180619825 0.057189182502 0.01704211228
8250000000.0 0.059183874219 0.017319989646 0.29821579932 -0.015729838673 0.29855525777 -0.015691405838 0.057313575481 0.016913938803
8500000000.0 0.059197379425 0.018234490278 0.29820547569 -0.016112904488 0.29852826859 -0.016123730421 0.057210273423 0.01737710097
8750000000.0 0.060603273148 0.018713636865 0.29811679221 -0.016597867264 0.2984335007 -0.016597977767 0.058311271397 0.017784739035
9000000000.0 0.059957829685 0.018255159201 0.29814218424 -0.017008969378 0.29843613292 -0.017019152347 0.057834225345 0.016982428388
9250000000.0 0.060888589948 0.018726765741 0.29825706856 -0.017549322975 0.29856111326 -0.017546482484 0.058077019549 0.018128781161
9500000000.0 0.061198767987 0.018680495596 0.29810072185 -0.018179579355 0.29840893329 -0.018049389099 0.05847111077 0.017690211761
9750000000.0 0.060652239249 0.018434904612 0.29803514568 -0.018624090334 0.29835258429 -0.018508421272 0.058715949136 0.018024141045
10000000000.0 0.061824022376 0.018333028916 0.29812755916 -0.018937899505 0.29846238373 -0.018907291816 0.058685826846 0.018759175495
10250000000.0 0.061559435311 0.019488420963 0.29811899603 -0.019505095519 0.29846287475 -0.019574147269 0.059336267609 0.019018385194
10500000000.0 0.062055433171 0.01949849545 0.29799598274 -0.020033901156 0.29834141233 -0.019999169496 0.060019740657 0.018429341952
10750000000.0 0.062784086784 0.019450729971 0.29799425337 -0.020714148687 0.29832596008 -0.020579367871 0.059886020133 0.01913540568
11000000000.0 0.06265949751 0.02015157013 0.29793896282 -0.021016384386 0.29826779495 -0.021042227034 0.060973615192 0.019306769516
11250000000.0 0.062790383548 0.019395345654 0.29782414126 -0.021314307083 0.29815332892 -0.021392840714 0.061097043134 0.018230395338
11500000000.0 0.063646124844 0.019810729074 0.29788433516 -0.021820690271 0.29821271349 -0.022098788262 0.060306070062 0.018031304693
11750000000.0 0.063537446288 0.020016389139 0.29766052602 -0.022337368029 0.29798628341 -0.022527426817 0.060764910618 0.019419651968
12000000000.0 0.064068756185 0.019593120738 0.2976234306 -0.02303157175 0.29795887688 -0.023117511302 0.06100688627 0.018804840892
12250000000.0 0.064604053631 0.019043909316 0.29757720081 -0.023178578492 0.29791638573 -0.023144833942 0.061659393297 0.018617260403
12500000000.0 0.064219822814 0.019655781634 0.29779843459 -0.023480977011 0.29814109845 -0.023595435045 0.06158481392 0.018719004142
12750000000.0 0.064578012167 0.01950889863 0.29742793797 -0.024408232514 0.29778553421 -0.024330403109 0.062589343681 0.01902559605
13000000000.0 0.064141885591 0.019138275552 0.29714817567 -0.02454660185 0.29747252481 -0.024524681979 0.062349723426 0.017959568376
13250000000.0 0.064142755888 0.018275526401 0.29751092719 -0.025322954797 0.29783055288 -0.0253181778 0.062848337997 0.018103798317
13500000000.0 0.063833789547 0.019582792596 0.29727686746 -0.025863436237 0.29759901701 -0.025557834003 0.062109738588 0.016973035816
13750000000.0 0.063715183654 0.019617037529 0.29731273354 -0.026409486539 0.29767385562 -0.025995269459 0.061345036709 0.016968656151
14000000000.0 0.063807121491 0.020008603083 0.29726875891 -0.026875133478 0.29762761043 -0.026582543352 0.060738309826 0.017877382175
14250000000.0 0.064367736844 0.020003016629 0.29734871389 -0.027261054928 0.29764889433 -0.027128388611 0.061353779313 0.017725385819
14500000000.0 0.063236202965 0.019488626869 0.2971087471 -0.027459366389 0.29735335415 -0.027597250447 0.061234931805 0.016862023215
14750000000.0 0.062676389783 0.019883421319 0.29715945689 -0.027706699795 0.29744290022 -0.027962044247 0.060810016166 0.017462806024
15000000000.0 0.062363134152 0.020106516269 0.29687709426 -0.028209501137 0.29723244081 -0.028097135306 0.060370112829 0.017514115206
15250000000.0 0.062387103734 0.021917024516 0.29747129538 -0.028208693204 0.29781462462 -0.028234222195 0.059595914648 0.018350761064
15500000000.0 0.062696173698 0.021464294754 0.29748010055 -0.029092347512 0.2978022767 -0.029216639378 0.059576389483 0.018083727218
15750000000.0 0.062103124155 0.022033161822 0.29721933538 -0.029721844806 0.29754710549 -0.029958827818 0.058821129853 0.018485107808
16000000000.0 0.063089769126 0.022873175219 0.29728909474 -0.03041214503 0.29759909417 -0.030616475119 0.060017295428 0.019902829785
16250000000.0 0.062783464497 0.021972134651 0.2968670388 -0.030989333432 0.29720588521 -0.030930569575 0.059939420189 0.019573474197
16500000000.0 0.063373374241 0.022601191943 0.29733721278 -0.031790018738 0.29767293541 -0.031804231254 0.060091545896 0.019812799224
16750000000.0 0.062081700439 0.023721092777 0.29679276667 -0.032335629034 0.29710532627 -0.032432370445 0.059581511319 0.019965490546
17000000000.0 0.063406044121 0.022811121659 0.29640884669 -0.03212751857 0.29675105401 -0.03214469725 0.060018488768 0.018629519463
17250000000.0 0.063430000389 0.024400724906 0.29649682932 -0.032601408332 0.29683914122 -0.032701309314 0.058353331696 0.019385609755
17500000000.0 0.061828452394 0.02419641088 0.29627525659 -0.03296231486 0.29662846431 -0.033014645323 0.059048174278 0.019838698397
17750000000.0 0.063584416636 0.025865488513 0.29682382175 -0.033748286802 0.29718769595 -0.033615054808 0.058594884581 0.019737586618
18000000000.0 0.063096622648 0.024877468232 0.29698785433 -0.034359528264 0.29730884695 -0.034505699412 0.058431874744 0.021510565232
18250000000.0 0.063842922089 0.025539831561 0.29696504224 -0.034803773212 0.29733548445 -0.034799424036 0.059782339117 0.022641225921
18500000000.0 0.063647469727 0.025173493362 0.29656278332 -0.035335373809 0.29692093998 -0.035376320776 0.060059237933 0.021693333924
18750000000.0 0.063754698221 0.024874599547 0.29641566533 -0.035789108987 0.29673765009 -0.035966287456 0.060913534636 0.021527048907
19000000000.0 0.063818803948 0.026581558311 0.29618354467 -0.036340111342 0.29650940052 -0.036606453607 0.059659035695 0.02170227616
19250000000.0 0.064451890058 0.025874711105 0.2962911036 -0.037052605033 0.29660538622 -0.037227969652 0.059846858992 0.022719134347
19500000000.0 0.064328244683 0.026478997533 0.29588655899 -0.037598636203 0.29622199767 -0.037769766106 0.060948910155 0.022209318467
19750000000.0 0.064727532028 0.026408957898 0.29547255476 -0.038153731087 0.29579366009 -0.038409003442 0.06052297272 0.021018292165
20000000000.0 0.063803237271 0.027505572356 0.29538260481 -0.037336505126 0.29568411542 -0.037618631795 0.059307063197 0.022326890175
20250000000.0 0.064668330677 0.027565622544 0.29605217754 -0.038485138052 0.29638383443 -0.038652619402 0.059051080346 0.022259517717
20500000000.0 0.06461945045 0.028253461349 0.29605129577 -0.03871661874 0.29642499574 -0.038553893567 0.059814266866 0.023556728312
20750000000.0 0.064198559102 0.028699569587 0.29559327385 -0.039491420271 0.29594968719 -0.039447457297 0.059302933017 0.02401726072
21000000000.0 0.063429851077 0.027929999158 0.29553419001 -0.040121257583 0.29586494797 -0.040258104412 0.058705728437 0.022961531182
21250000000.0 0.064764964897 0.028483585186 0.29529376053 -0.040156857591 0.29561069762 -0.040314094874 0.059225987522 0.024977509005
21500000000.0 0.06408077214 0.028252239217 0.29564713794 -0.040993652198 0.29596856751 -0.041202644762 0.060430663316 0.024853611667
21750000000.0 0.065044250269 0.030108549528 0.29503623788 -0.041443208759 0.29533708182 -0.041719248897 0.060063147578 0.025269240409
22000000000.0 0.066241010247 0.030361997383 0.295839026 -0.04168334022 0.29612493538 -0.042148639927 0.061022176955 0.024750624693
22250000000.0 0.064131873679 0.029588599111 0.29423840965 -0.042806627139 0.29458278324 -0.042918466014 0.060748262342 0.024566783485
22500000000.0 0.066710724838 0.030821261835 0.2946129937 -0.043473386857 0.29495430635 -0.0435262237 0.05998007363 0.024558591126
22750000000.0 0.066732679273 0.031266741652 0.29435375081 -0.04317323302 0.29470334132 -0.043184679622 0.060279246605 0.02585107556
23000000000.0 0.067450654668 0.029322426988 0.294382728 -0.044202368226 0.29469780911 -0.044512471272 0.061187287127 0.025697052144
23250000000.0 0.067104153369 0.029940144555 0.29457164994 -0.043529969241 0.29485087913 -0.043957598489 0.059826834462 0.025666206955
23500000000.0 0.066027254082 0.030828573727 0.2940842646 -0.044271850038 0.29438055029 -0.04452235234 0.061298143607 0.026798562036
23750000000.0 0.067736416387 0.032126651793 0.29498483006 -0.044193602997 0.29528859687 -0.044632682306 0.061052539513 0.027324578304
24000000000.0 0.0676178891 0.030697371243 0.2946893881 -0.045517251533 0.29500197524 -0.045849574417 0.061767431489 0.027799754051
24250000000.0 0.068712632659 0.032193469009 0.29394809654 -0.046466064969 0.29423386508 -0.046836500573 0.062956100235 0.027878904656
24500000000.0 0.068277172287 0.030634916393 0.29351657148 -0.046297887918 0.29383366927 -0.046587014998 0.063853034627 0.027298190595
24750000000.0 0.06866259616 0.030109658203 0.29402448316 -0.046635681653 0.29437270928 -0.046859401184 0.062699710227 0.027334777169
25000000000.0 0.068095547682 0.030648491596 0.29294059902 -0.047893615954 0.29332812711 -0.0478829461 0.062731326325 0.025614992542
25250000000.0 0.067782134308 0.031031987161 0.29344850938 -0.047146392209 0.29377235561 -0.047301206331 0.062342443112 0.026884696805
25500000000.0 0.068854359976 0.03091929382 0.29351276748 -0.048398247527 0.29381656399 -0.048518251678 0.062239593367 0.027378578082
25750000000.0 0.069286509737 0.030611485556 0.29267888186 -0.049008422654 0.29301109783 -0.049126925609 0.062108793766 0.02721452389
26000000000.0 0.069244305563 0.031128413316 0.29279336613 -0.048885593754 0.293121383 -0.049069715504 0.063124795971 0.027581761997
26250000000.0 0.069131474945 0.03152578107 0.29304299253 -0.049250058288 0.29335340205 -0.049370015477 0.062864106875 0.027528563977
26500000000.0 0.070537704526 0.030316548069 0.29285027648 -0.049738490382 0.29317762519 -0.049933696446 0.063011260069 0.028564459819
26750000000.0 0.069661278255 0.03042154646 0.29287635176 -0.050052204495 0.29319325464 -0.050272918462 0.063945151071 0.029077648526
27000000000.0 0.068900419439 0.031491572911 0.2929359255 -0.050637676137 0.2932213582 -0.050798533698 0.063865534067 0.028857657059
27250000000.0 0.06994960731 0.030172287973 0.292967832 -0.050599827136 0.29327262369 -0.050781426271 0.063825795132 0.027882280119
27500000000.0 0.069318710759 0.030657353725 0.29298863568 -0.051700667959 0.29324563493 -0.052108166246 0.063648646235 0.02764785127
27750000000.0 0.068445586492 0.029165964652 0.2925183934 -0.052324020808 0.29278351005 -0.05246313438 0.062644577107 0.029214045475
28000000000.0 0.069815258493 0.030279900128 0.29276214297 -0.052381154569 0.29311341635 -0.052524274 0.062813668808 0.029885479115
28250000000.0 0.068262368953 0.030390829783 0.29225404255 -0.053456681483 0.29253132117 -0.053548482596 0.064105036005 0.030225657556
28500000000.0 0.068895838731 0.030584954934 0.29219679675 -0.053488711505 0.29244746383 -0.053776587568 0.063574134728 0.030364959074
28750000000.0 0.068569979514 0.030466120672 0.29208243261 -0.054221728743 0.29230392733 -0.054630644695 0.063751729012 0.030649985496
29000000000.0 0.068386474013 0.031004310426 0.29145976362 -0.054134666037 0.29168604973 -0.054324920359 0.063725847003 0.031143469621
29250000000.0 0.069737972019 0.0307304799 0.29210751847 -0.054670653749 0.29235583518 -0.054825458308 0.065033631849 0.031068153644
29500000000.0 0.068522082301 0.029464767185 0.29128551726 -0.054484921937 0.29158058898 -0.054819554448 0.064783321186 0.031405655593
29750000000.0 0.069146298445 0.030730387967 0.29153216362 -0.055984223076 0.29178824579 -0.056145411945 0.064728775298 0.031850975611
30000000000.0 0.070090775662 0.029447454271 0.29185713697 -0.055845291766 0.2921353374 -0.056077837174 0.065624010298 0.031741922182
30250000000.0 0.069697015194 0.030073285896 0.29172696584 -0.056980481438 0.29194433413 -0.057004109303 0.064857906096 0.032327833955
30500000000.0 0.069415281989 0.030273243263 0.29120814804 -0.057561401946 0.29147023594 -0.057608222359 0.064458807889 0.03274931939
30750000000.0 0.068293120824 0.029576683812 0.29097561167 -0.057579012794 0.29116226422 -0.057844940726 0.064494817158 0.033009464383
31000000000.0 0.068726757389 0.031633627598 0.29105939726 -0.057714330282 0.29123284532 -0.05796420167 0.066011752832 0.033170884689
31250000000.0 0.068134745953 0.031727761862 0.29091924529 -0.058031011736 0.29115594085 -0.058280756725 0.064996898518 0.033910689728
31500000000.0 0.06854085683 0.03307331498 0.29107771934 -0.059075852355 0.29129344506 -0.059203827308 0.065900370934 0.033888293837
31750000000.0 0.068679270688 0.032763388353 0.29029160683 -0.059214607526 0.29046364828 -0.059376323373 0.066282207547 0.033140052213
32000000000.0 0.069042630064 0.032104347986 0.29093081871 -0.059388599688 0.29114431717 -0.059475429405 0.065544003632 0.034033608333
32250000000.0 0.068803637795 0.032471413262 0.2902460378 -0.060402764241 0.29043724384 -0.06059864079 0.067078323132 0.034018253195
32500000000.0 0.069210510085 0.032266765818 0.29007195798 -0.060466035453 0.2902405092 -0.060777252749 0.06654461042 0.033985518497
32750000000.0 0.069129576155 0.031696171718 0.2907074697 -0.060379256645 0.29085722032 -0.060691828126 0.066181588034 0.034160548522
33000000000.0 0.068617500126 0.032117833436 0.29043004468 -0.061229975932 0.2905783202 -0.061623202973 0.065999579171 0.035246819737
33250000000.0 0.069381156471 0.033055660013 0.29058204822 -0.061129075571 0.29070578351 -0.061555090269 0.066690069014 0.035222772439
33500000000.0 0.0693031309 0.034246596054 0.29110452417 -0.062279580731 0.29116176974 -0.062805219867 0.066537668818 0.036279089031
33750000000.0 0.068951201728 0.033351128971 0.29042516218 -0.063252572418 0.29049705263 -0.063622857928 0.067901864056 0.035318103873
34000000000.0 0.069513224274 0.034768224629 0.28984429353 -0.064085210041 0.28997956325 -0.064193262799 0.067617335761 0.036188995441
34250000000.0 0.069523871236 0.034303353805 0.28931765074 -0.06402574603 0.2894415728 -0.064291502407 0.067650492345 0.035567435429
34500000000.0 0.070375757637 0.034864156964 0.28921647225 -0.063866363713 0.2893978744 -0.064197743183 0.067877970962 0.03588105205
34750000000.0 0.069121320283 0.035643514948 0.2893547372 -0.064216291571 0.28952266301 -0.064437080029 0.067842985686 0.035387453404
35000000000.0 0.07068932282 0.035136902164 0.28926082744 -0.065099067926 0.28949745987 -0.065068422847 0.069053856068 0.035759489611
35250000000.0 0.070853077545 0.036446935936 0.28929845681 -0.065053331399 0.28950008167 -0.065286928173 0.067928443223 0.035853804029
35500000000.0 0.070244170761 0.035279669213 0.28925463741 -0.066397315328 0.28936466705 -0.066392552194 0.068766140676 0.036791195504
35750000000.0 0.071432935786 0.035467258749 0.28890875731 -0.066400733795 0.28909877708 -0.06622300225 0.068955615831 0.035327996504
36000000000.0 0.069005884268 0.035591283203 0.28931134238 -0.066705245517 0.28937834362 -0.0668361344 0.068748044924 0.036551135338
36250000000.0 0.071402017868 0.036061431658 0.28827031773 -0.067784958949 0.28835054555 -0.067986217447 0.069199148951 0.036077745751
36500000000.0 0.07063633839 0.036027758876 0.28845730767 -0.067186280359 0.28854195124 -0.067519201718 0.069767957035 0.036467400549
36750000000.0 0.070182347187 0.035303891652 0.2886754502 -0.06809525055 0.28873702127 -0.068547583328 0.068705276745 0.035305067414
37000000000.0 0.070964940824 0.037099976236 0.28850863196 -0.068612498683 0.2886227766 -0.068913368247 0.068138904605 0.036845091877
37250000000.0 0.070313174742 0.0376055644 0.28836233116 -0.068937377728 0.28840354704 -0.069372158637 0.068384234104 0.036637813371
37500000000.0 0.072035594976 0.037965357995 0.28832153491 -0.069382647226 0.28837523564 -0.06972486661 0.068407021439 0.037166385056
37750000000.0 0.070819708431 0.037838970916 0.28842940017 -0.069826108472 0.28848825169 -0.070276629497 0.068908195559 0.037811686791
38000000000.0 0.072384162394 0.037218753768 0.28750723357 -0.070284222848 0.28760833434 -0.070455374288 0.069269770023 0.036972319815
38250000000.0 0.071100602895 0.038211883154 0.28793927933 -0.070475727821 0.28813079958 -0.070625890716 0.069517830139 0.037262195225
38500000000.0 0.071100233424 0.037134373646 0.28780432513 -0.071016960778 0.28790671529 -0.071075161965 0.069396141914 0.036955220435
38750000000.0 0.072224144025 0.039497734826 0.28740161873 -0.071503123076 0.2874383254 -0.071587752514 0.069387798764 0.037460153063
39000000000.0 0.070066131797 0.038312042775 0.28746935658 -0.071740749344 0.28762318167 -0.071973814862 0.069696281171 0.037370349075
39250000000.0 0.07271009128 0.038165430472 0.28763387436 -0.072161763609 0.28765686268 -0.072455471179 0.068575205854 0.037593856878
39500000000.0 0.072138726529 0.041160673496 0.28779552168 -0.073111187432 0.28784231289 -0.073315135567 0.06923717251 0.038010986786
39750000000.0 0.070674346098 0.037640440084 0.28795784801 -0.073188207277 0.28801235922 -0.073432989026 0.068743705694 0.037526261742
40000000000.0 0.072832839214 0.039567283187 0.28732468797 -0.073689058444 0.28741437298 -0.074169543933 0.06899684402 0.038913333466
40250000000.0 0.071230565014 0.040340426361 0.28741491526 -0.073952706623 0.28742637856 -0.074390892467 0.069494618857 0.039044686419
40500000000.0 0.072031100886 0.040533323801 0.28698919851 -0.074882168848 0.28697008422 -0.075357613156 0.070144170142 0.03965152145
40750000000.0 0.072179648092 0.040031427631 0.28712975711 -0.074721823474 0.2869983672 -0.075239062349 0.070874428969 0.038769109078
41000000000.0 0.073198313379 0.040806637124 0.28643942135 -0.075883341106 0.2863481818 -0.076243326346 0.070016584731 0.038628718365
41250000000.0 0.072070665532 0.041650852032 0.2867381777 -0.075338470092 0.28685002559 -0.075727563147 0.070018368771 0.0377128298
41500000000.0 0.072712707921 0.040856953329 0.2870672825 -0.07650171519 0.287032201 -0.076753993066 0.068758281481 0.039006593973
41750000000.0 0.074730836291 0.042570865202 0.2864138629 -0.077210453444 0.28638308195 -0.077314505938 0.070329800351 0.039875531881
42000000000.0 0.072381762776 0.042235535218 0.28640894859 -0.077369543027 0.28635522677 -0.077485778124 0.069263826694 0.040169845598
42250000000.0 0.07337646776 0.040582030021 0.28658020438 -0.077567167348 0.2865828347 -0.077602247847 0.069215591735 0.039736560668
42500000000.0 0.073262723111 0.043324347103 0.28720731357 -0.078740725927 0.28728351853 -0.078390971083 0.069612935245 0.040589549226
42750000000.0 0.072734447894 0.043484219099 0.28639301247 -0.078924128306 0.28641833465 -0.078933311996 0.069153696877 0.040266632901
43000000000.0 0.073097877435 0.043092976493 0.28599211812 -0.079734309459 0.28615359713 -0.079819377168 0.069822527934 0.041643225461
43250000000.0 0.074049455394 0.042566088497 0.28560127253 -0.080265392383 0.28562829125 -0.080587788589 0.070595486904 0.041933241035
43500000000.0 0.073940372183 0.043513995834 0.28575561593 -0.080451308975 0.28569526642 -0.080853286038 0.07070575154 0.041238583025
43750000000.0 0.072128656607 0.044271511861 0.2851832301 -0.080344157293 0.28508407128 -0.0809561886 0.07127958597 0.041492158964
44000000000.0 0.074010710574 0.042012674098 0.28603674607 -0.080749263764 0.28595789056 -0.08121414988 0.070508565414 0.041020382984
44250000000.0 0.074705979661 0.044988246836 0.28610506247 -0.081193586278 0.28601731948 -0.081822148434 0.070722594044 0.042619988536
44500000000.0 0.071743700459 0.043102448286 0.28579996707 -0.082343402484 0.28562974848 -0.083221598109 0.070627279 0.042501328112
44750000000.0 0.076102713986 0.042790143454 0.28498521796 -0.082640679032 0.28483991521 -0.083359432677 0.071212297505 0.041947220692
45000000000.0 0.073719059972 0.04685354054 0.28505656066 -0.083141133232 0.28485440405 -0.083848096178 0.071026192911 0.043239468613
45250000000.0 0.075096052787 0.043301285395 0.28507538678 -0.08357861869 0.28506167424 -0.084172514459 0.071409508371 0.043160690532
45500000000.0 0.076816064942 0.044947437579 0.28473609702 -0.084343231638 0.28464498942 -0.084570233666 0.071500896693 0.043697312664
45750000000.0 0.074212360628 0.045231337688 0.28552585411 -0.084774173278 0.28547808048 -0.085079551511 0.071398300468 0.043726385143
46000000000.0 0.075532999547 0.04552618295 0.28481801968 -0.085181818467 0.28486355843 -0.0856217826 0.071515373508 0.043018153668
46250000000.0 0.075233709268 0.046002702638 0.28467594061 -0.086197048661 0.28462961369 -0.086363169464 0.071672346462 0.044049821391
46500000000.0 0.075440041331 0.045424163084 0.28449062522 -0.08688379252 0.28463485755 -0.087057027905 0.071553599615 0.044698481473
46750000000.0 0.074092544912 0.046962711329 0.28402676169 -0.086869494089 0.28421397125 -0.086859674808 0.0729453125 0.04463895511
47000000000.0 0.074298394065 0.046767562754 0.28371474944 -0.087836127088 0.2837779189 -0.087784602335 0.073270894857 0.043662727186
47250000000.0 0.074433586815 0.048331265595 0.2842790954 -0.08844369667 0.28435072898 -0.088373253889 0.07230477936 0.04420415444
47500000000.0 0.074795907696 0.04767940504 0.28313088433 -0.088597077855 0.28306342123 -0.088987685411 0.072809037005 0.044258503489
47750000000.0 0.075641787345 0.048046417638 0.28371012678 -0.089351159717 0.28368750824 -0.089691115503 0.072257278078 0.044835788644
48000000000.0 0.076504441456 0.047551419448 0.28296810995 -0.089297928712 0.28293145172 -0.089709704132 0.073116457047 0.045515406582
48250000000.0 0.076463741227 0.04765857577 0.28317118418 -0.089645174638 0.28309634691 -0.090323252085 0.072665245701 0.045440062248
48500000000.0 0.07732599721 0.048483959211 0.28278835249 -0.090380837526 0.28257424674 -0.091218267301 0.072703424334 0.045482532027
48750000000.0 0.077506126596 0.046903342879 0.28225962201 -0.090993380554 0.28209465189 -0.091706812492 0.074040407857 0.045557506569
49000000000.0 0.077961892192 0.047926751187 0.2825721522 -0.091438984169 0.28236415168 -0.092100138775 0.073798980034 0.045947468573
49250000000.0 0.076892356664 0.0483317928 0.2819486709 -0.091668394411 0.28182977928 -0.092209546062 0.074514580856 0.045616051595
49500000000.0 0.077216473792 0.047996501685 0.28211479949 -0.092354607295 0.28216620181 -0.092750580295 0.073733149057 0.046585291363
49750000000.0 0.078610200648 0.04975364626 0.28162296594 -0.093327275126 0.28155184179 -0.09374970033 0.074443275019 0.046292576341
50000000000.0 0.077529971718 0.049262610868 0.28165045498 -0.093772287205 0.28170431586 -0.09386049187 0.074589321925 0.046305232585
