!Created with skrf (http://scikit-rf.org).
# Hz S RI R 50.0 
!freq ReS11 ImS11 ReS21 ImS21 ReS12 ImS12 ReS22 ImS22
2500000000.0 0.079986361793 0.017040779513 0.45729367726 -0.0090622609533 0.45766232192 -0.0090376438293 0.078505282171 0.016639602501
2750000000.0 0.080485888507 0.015611034165 0.45721862266 -0.0097003446313 0.45757307173 -0.0096722120869 0.078655463185 0.015273298124
3000000000.0 0.080127046924 0.014544955246 0.45719044383 -0.010307455723 0.45755908942 -0.010296680338 0.078281961088 0.0144899649
3250000000.0 0.080307837836 0.014673382489 0.45714185752 -0.011096018474 0.45754964674 -0.011080207084 0.078297311816 0.014734394762
3500000000.0 0.08010936418 0.014127629281 0.45709289859 -0.011740270048 0.4574849164 -0.011744389448 0.078807179865 0.014150332613
3750000000.0 0.080485181935 0.014323223301 0.45707505131 -0.012478957273 0.45742357131 -0.012464817198 0.07899275508 0.013893089933
4000000000.0 0.080894764998 0.014398129375 0.45709361566 -0.01312304067 0.45743091845 -0.01309323516 0.079321326942 0.013898783792
4250000000.0 0.081292853967 0.014188909735 0.45695342161 -0.013978011985 0.45733678492 -0.013921073059 0.079623156443 0.013759560689
4500000000.0 0.081544148387 0.014168897916 0.45693118331 -0.014640695805 0.4573173441 -0.014635915836 0.079799174006 0.0135992308
4750000000.0 0.082091104997 0.014430986736 0.45689206314 -0.015398160234 0.45726704621 -0.015371376656 0.079911352515 0.013656856561
5000000000.0 0.082808139136 0.014288074663 0.45684453781 -0.016196199758 0.45727739323 -0.016132448011 0.079914819307 0.014409705414
5250000000.0 0.083047032239 0.014245454531 0.45671712924 -0.017036814336 0.45709833906 -0.016914237669 0.081841618608 0.015069842169
5500000000.0 0.083925353824 0.014264397173 0.45656374312 -0.017759393879 0.45693750154 -0.017690211235 0.083016960463 0.014607426356
5750000000.0 0.084407653359 0.013232727573 0.45656985969 -0.018261467494 0.45693220561 -0.018261997097 0.082862088749 0.012950107254
6000000000.0 0.084208982571 0.012563649893 0.45638144784 -0.019070219121 0.4567349777 -0.019099067798 0.08314187169 0.012399641673
6250000000.0 0.08384803694 0.012623283264 0.45647839894 -0.019695092815 0.4568058003 -0.019636317953 0.082544022654 0.011766946683
6500000000.0 0.084121914354 0.012830218507 0.45647186911 -0.020501294807 0.45682085738 -0.020421515419 0.08229310029 0.012419737371
6750000000.0 0.084391285957 0.012998088338 0.45642353059 -0.021345428474 0.45681650942 -0.021327518122 0.082909510223 0.012846309027
7000000000.0 0.084217945507 0.01274409413 0.45617024642 -0.02202576021 0.45656019906 -0.022025124378 0.082864591954 0.012186132496
7250000000.0 0.084936518587 0.01263277283 0.45634637006 -0.022531884857 0.45678059655 -0.022594801473 0.083200270505 0.012505322265
7500000000.0 0.084786187905 0.012397729389 0.45626258395 -0.023407220676 0.4567159217 -0.023347723432 0.083656488122 0.012104543952
7750000000.0 0.084959709347 0.012837007558 0.45621674374 -0.024270105426 0.4566490172 -0.024252315778 0.083565315715 0.012314846997
8000000000.0 0.085136980004 0.012542703864 0.45622073838 -0.025013701672 0.45665790002 -0.024951822463 0.083620821278 0.012191659641
8250000000.0 0.084681818662 0.01252329882 0.45610356001 -0.025835037572 0.45656341676 -0.025730836785 0.083726132005 0.012072650356
8500000000.0 0.084767945599 0.013356709699 0.45611254143 -0.026468251396 0.45653690813 -0.026433920684 0.083671438282 0.012403881851
8750000000.0 0.086045884433 0.013630802634 0.45594664065 -0.027265668925 0.45637866848 -0.027204951195 0.084655425099 0.01256165153
9000000000.0 0.085383307414 0.013091691293 0.45592857273 -0.027902529024 0.45634232477 -0.027864910323 0.084182173995 0.011801363573
9250000000.0 0.086209611625 0.013453562598 0.45605881871 -0.028858777965 0.45647806553 -0.028780948512 0.084328771682 0.012711287773
9500000000.0 0.086478048871 0.013407574696 0.45586924368 -0.029803757479 0.45628379188 -0.029551928289 0.084728452296 0.012237970822
9750000000.0 0.086052376048 0.012977320792 0.45572952684 -0.030452042187 0.45612688806 -0.030233671718 0.084789723163 0.012462492378
10000000000.0 0.087078152375 0.012871494829 0.4558799161 -0.03091743699 0.45626224084 -0.03081884782 0.084834681873 0.013290912121
10250000000.0 0.086757975635 0.013798698101 0.45585427608 -0.031853377076 0.45627129306 -0.031879521025 0.085483335001 0.01318253069
10500000000.0 0.087060535242 0.013689751318 0.45564766343 -0.032605717591 0.45608582399 -0.032503624571 0.086041406381 0.012455541437
10750000000.0 0.087806397363 0.013580876845 0.45564126466 -0.033637235208 0.45606360771 -0.033378853634 0.085770197783 0.013128297096
11000000000.0 0.087491286021 0.014122555939 0.45551973658 -0.034134186566 0.45591614463 -0.034113159874 0.086770817992 0.013218811125
11250000000.0 0.087560811893 0.013669602996 0.45557190534 -0.034611376871 0.45597528655 -0.034633729011 0.086940567458 0.012111377218
11500000000.0 0.088735980762 0.013778780946 0.45556549098 -0.035493902694 0.45592359214 -0.035854085371 0.086199344499 0.011844506941
11750000000.0 0.088497688684 0.013779687439 0.45528845956 -0.036391354559 0.45564862377 -0.036631578954 0.086549499312 0.013289009353
12000000000.0 0.088834554175 0.013206219009 0.45510859102 -0.037461680362 0.45547012236 -0.037509490792 0.086644003892 0.012349560631
12250000000.0 0.089421597636 0.012797728167 0.455256856 -0.037744811557 0.45567763127 -0.037602346461 0.087381477012 0.012161920711
12500000000.0 0.08890222647 0.013116344618 0.45550302859 -0.038311170743 0.45593209137 -0.038385645119 0.087113560738 0.012288462692
12750000000.0 0.089305477942 0.013158938085 0.45477448309 -0.039747725477 0.45522421774 -0.039571015516 0.088276153367 0.012189000202
13000000000.0 0.088880247146 0.012649720289 0.45446152245 -0.039982133364 0.45475021741 -0.039882184254 0.087819737978 0.011579963287
13250000000.0 0.088943572503 0.011941490274 0.45489712816 -0.040912845363 0.45520688094 -0.040838275194 0.088284899349 0.011470775258
13500000000.0 0.088617796316 0.012919080681 0.45494398497 -0.042004065881 0.4552426468 -0.041459266779 0.087860381438 0.010229311074
13750000000.0 0.088803176771 0.012759110007 0.45477587897 -0.042897107118 0.45514919779 -0.042180151081 0.086802271785 0.010215768761
14000000000.0 0.088849892888 0.013060573195 0.45494006464 -0.043868134385 0.45530208875 -0.043339272625 0.086528753249 0.011368508705
14250000000.0 0.088729250999 0.01305452852 0.45449451443 -0.044455829984 0.45476420902 -0.044146528967 0.087010953226 0.01089573228
14500000000.0 0.08846097036 0.01280755766 0.45442062705 -0.044520057872 0.45462568446 -0.04462433373 0.086908329501 0.00985683739
14750000000.0 0.087437004872 0.012803320907 0.45452645425 -0.045301989384 0.45477680683 -0.045590845647 0.086733666763 0.01033063811
15000000000.0 0.087339912538 0.013114864673 0.45369877946 -0.045823162772 0.45404120394 -0.045574121515 0.085966161305 0.010428322998
15250000000.0 0.087330733123 0.01473127486 0.45478715441 -0.046145071169 0.45514585451 -0.046085770277 0.085458253821 0.01082469452
15500000000.0 0.087517808845 0.014168200201 0.45457231858 -0.047054234114 0.45492246744 -0.047146781472 0.085153446114 0.010895788373
15750000000.0 0.087088050373 0.015187467177 0.45434320714 -0.048054454981 0.45467783566 -0.048340383703 0.084622888814 0.011242420994
16000000000.0 0.087952524957 0.015206486505 0.45467097878 -0.049036164332 0.45499059493 -0.04928412603 0.085722133386 0.012359011185
16250000000.0 0.087894280969 0.014326763318 0.45407248246 -0.050241294369 0.45446725751 -0.050026902589 0.085436308158 0.012383582373
16500000000.0 0.08820896102 0.014903866879 0.45444600332 -0.051637120851 0.4548003579 -0.051570467247 0.08612810263 0.012242842735
16750000000.0 0.086733143746 0.015943904647 0.45362748905 -0.052081299547 0.45393566011 -0.052160923697 0.084978690518 0.01256323107
17000000000.0 0.088209858153 0.014643241489 0.45347890732 -0.051855410319 0.45382406295 -0.051793136265 0.086402186164 0.011005416616
17250000000.0 0.088473078278 0.016133620396 0.4529727222 -0.052861539739 0.45334495899 -0.052910958105 0.08419019382 0.011943989641
17500000000.0 0.087085201196 0.016153198255 0.45320853644 -0.053064488157 0.45363398795 -0.053019372518 0.08481151636 0.011984760823
17750000000.0 0.087936055656 0.016701806842 0.45351226223 -0.054571314382 0.45399095611 -0.054253005749 0.084357168088 0.011755004085
18000000000.0 0.087586525228 0.017034520224 0.454322478 -0.055169823883 0.45473565902 -0.055241304686 0.083995913802 0.013612057222
18250000000.0 0.088457385932 0.017046272954 0.45396070186 -0.05636228783 0.45443083428 -0.056204124199 0.085108433825 0.014179553649
18500000000.0 0.087736588062 0.017666656189 0.45343714561 -0.057118219811 0.45386212678 -0.057038733426 0.085558911789 0.013745546429
18750000000.0 0.089496879597 0.016839431284 0.4526499336 -0.058026573995 0.45306716895 -0.058161413206 0.087334208771 0.013474103347
19000000000.0 0.088979730128 0.017826815784 0.45295192663 -0.058295882094 0.45334757621 -0.058527112919 0.085248825796 0.013721100202
19250000000.0 0.088934745104 0.017130301084 0.45271649685 -0.059318666251 0.45309870534 -0.059425073041 0.08668213119 0.0140226869
19500000000.0 0.088932906244 0.018147083486 0.45275756232 -0.060206314725 0.45315756413 -0.060321903314 0.086981762704 0.013658495845
19750000000.0 0.089665301084 0.018101704446 0.45194288615 -0.06079783791 0.45231044956 -0.061036588773 0.085650279067 0.013248323059
20000000000.0 0.089188105385 0.019036622688 0.45169261154 -0.060968038196 0.45206882224 -0.061238291659 0.085339202064 0.012801974655
20250000000.0 0.088800124632 0.017512950092 0.45224083057 -0.062464598196 0.45264439179 -0.062590178414 0.084553192273 0.013189868987
20500000000.0 0.089985912688 0.019010118667 0.45267863634 -0.0629550418 0.45315572445 -0.062558650294 0.085189447887 0.014108869701
20750000000.0 0.0890864496 0.019464323997 0.45198605961 -0.063252273203 0.45247699703 -0.063005469681 0.084938959726 0.015055233832
21000000000.0 0.089037674391 0.019086255048 0.45192422179 -0.064426344627 0.45239066799 -0.064453530635 0.08454117557 0.01395240885
21250000000.0 0.089479330286 0.018844749072 0.45183157902 -0.065070497075 0.45224307036 -0.065123952165 0.085394803882 0.01634080039
21500000000.0 0.088968850286 0.019062919541 0.45162407612 -0.065828221902 0.45200700149 -0.065941791535 0.086085563668 0.015714410017
21750000000.0 0.090020525962 0.020452787458 0.45097560718 -0.066728758328 0.45132109512 -0.06699615348 0.086025742138 0.014752784789
22000000000.0 0.091095902582 0.020220404446 0.45225504121 -0.067310892398 0.45258385507 -0.067861373212 0.086467432701 0.015222029814
22250000000.0 0.089212959547 0.019679006018 0.45032277235 -0.06837025359 0.45074234233 -0.068376736319 0.086865106584 0.014739465401
22500000000.0 0.091434103315 0.020965132948 0.45046154943 -0.069430525052 0.45090878481 -0.069370139618 0.085667581893 0.014204070226
22750000000.0 0.091701387685 0.020435683267 0.45056061564 -0.069793897063 0.45103316696 -0.069648555467 0.085594985227 0.016371177407
23000000000.0 0.091874292301 0.019185174509 0.45050474905 -0.070924795889 0.45092163375 -0.071166725289 0.086426501454 0.014768475498
23250000000.0 0.092074279091 0.019419310259 0.45035065605 -0.070221485888 0.45074549844 -0.070670059839 0.085746563197 0.015504539723
23500000000.0 0.091251309748 0.020477256961 0.44977509957 -0.07150169724 0.45022112076 -0.071654852638 0.086360595781 0.016100266109
23750000000.0 0.092077875004 0.020856912134 0.45112719867 -0.071531419681 0.45154401944 -0.072005356599 0.086908864869 0.016735390943
24000000000.0 0.092236434246 0.019842093384 0.45019784376 -0.073836623526 0.45061664208 -0.074121237257 0.086972649349 0.016690640697
24250000000.0 0.092388173963 0.021441032728 0.44946716206 -0.074482479389 0.44985209167 -0.074862065953 0.087823748174 0.016877091665
24500000000.0 0.092517199753 0.020313219845 0.44918059996 -0.074605760898 0.44958991954 -0.074858167168 0.088693166166 0.017016358566
24750000000.0 0.09306324993 0.018880373509 0.44923999838 -0.075166802397 0.44967324992 -0.075271748484 0.087837196335 0.016198132442
25000000000.0 0.091838690079 0.019705534609 0.44872028452 -0.076652499529 0.44920954183 -0.076389127184 0.087520163884 0.015478617929
25250000000.0 0.092840952322 0.020857517377 0.4493819543 -0.077116589037 0.44981932132 -0.077105402382 0.087199852713 0.015945072303
25500000000.0 0.093776076287 0.020200046227 0.44895260667 -0.078203728363 0.4494191106 -0.078113935874 0.087395216539 0.015702504758
25750000000.0 0.094270437952 0.01866390992 0.44726744886 -0.078534366022 0.44775776055 -0.078436508016 0.086760598095 0.016453967737
26000000000.0 0.093387870331 0.019853583868 0.44768302208 -0.079506843844 0.44815501585 -0.079550838325 0.087507432127 0.016476927389
26250000000.0 0.093288217448 0.020586596877 0.44844426834 -0.079126197567 0.44892998182 -0.079047954372 0.08766813278 0.016679469818
26500000000.0 0.095012960375 0.01797383769 0.44807642538 -0.080436028845 0.44854498353 -0.08053808309 0.087581906126 0.016907002896
26750000000.0 0.093760470137 0.018510450659 0.44808920255 -0.0810657985 0.44855086005 -0.081168519833 0.088304513566 0.017280682734
27000000000.0 0.092921684237 0.019595414933 0.44813616216 -0.082153308877 0.44853216644 -0.082146214024 0.088055487072 0.017637185357
27250000000.0 0.09422688359 0.018745254138 0.44868268572 -0.082151813284 0.44915124942 -0.082207760863 0.088839723968 0.016387644486
27500000000.0 0.093308618488 0.019068592683 0.44811221055 -0.0835110031 0.44846220431 -0.08392039134 0.087541689624 0.01597937897
27750000000.0 0.092401305271 0.018584368588 0.44737935406 -0.084997332262 0.44784174724 -0.084934586574 0.087321331223 0.01762594756
28000000000.0 0.094086569413 0.019228321821 0.44706777225 -0.085192559111 0.44754160145 -0.08522520898 0.08805069739 0.017791928754
28250000000.0 0.092840801253 0.018191150059 0.44667351307 -0.086045142025 0.44710004032 -0.085971530624 0.088146554648 0.018028765412
28500000000.0 0.092644570741 0.018368202439 0.44662772802 -0.086359070093 0.44700577556 -0.086564710417 0.087702580153 0.018314341123
28750000000.0 0.092797946396 0.018005262813 0.4465352869 -0.08719690845 0.44684215144 -0.087602501809 0.088404075043 0.018276020795
29000000000.0 0.09215745468 0.019312064666 0.44598576807 -0.087720466654 0.44636780869 -0.087796796507 0.088363899862 0.01833105702
29250000000.0 0.093582152519 0.018665302674 0.44626709614 -0.088381372415 0.4466520719 -0.088435548527 0.089809357741 0.018410539849
29500000000.0 0.092463172028 0.017884221465 0.44637679031 -0.088397798689 0.44675520259 -0.088665671258 0.089063640018 0.018841518534
29750000000.0 0.092152869592 0.018553657431 0.44559039682 -0.090557395566 0.4460651497 -0.090620969976 0.089379685442 0.019775248521
30000000000.0 0.093193552625 0.017656789751 0.44633402436 -0.090507092029 0.44670321931 -0.090652807859 0.089478230923 0.01928700916
30250000000.0 0.093673299599 0.018165109882 0.44603673328 -0.092304144862 0.44641350751 -0.092096723498 0.088924332912 0.019502556229
30500000000.0 0.091694191009 0.01818657225 0.44527985608 -0.093475082291 0.44566821997 -0.093293815037 0.089086547673 0.020581783833
30750000000.0 0.092611913065 0.018596504945 0.44471444956 -0.093420208131 0.44500715038 -0.093632298306 0.088909570129 0.019935676547
31000000000.0 0.093322277556 0.019261430674 0.44431008358 -0.09425445876 0.44451190066 -0.094425849685 0.089938607249 0.020348386459
31250000000.0 0.092979322592 0.019401617136 0.44399232967 -0.094179450366 0.44434443653 -0.094358219749 0.090297527003 0.021270818582
31500000000.0 0.092137081168 0.01904734056 0.44490312174 -0.095132836206 0.44525618116 -0.095153388556 0.090322017039 0.020321562506
31750000000.0 0.092797623977 0.019828160874 0.44363626842 -0.095826244146 0.44392571102 -0.095822026807 0.090478000233 0.020263460148
32000000000.0 0.09240290008 0.019330317232 0.44478972342 -0.095758440087 0.44514814901 -0.095741934886 0.090101937114 0.020353682654
32250000000.0 0.092109422641 0.018968014077 0.44434247763 -0.097212789706 0.44466684756 -0.097283218469 0.091055894223 0.020056680826
32500000000.0 0.092293749724 0.019064120323 0.44382115793 -0.098141940587 0.44408241981 -0.098403352345 0.090793394141 0.020011068589
32750000000.0 0.092442075183 0.019264452956 0.44432625205 -0.098244192361 0.44458316818 -0.098376856437 0.09026919958 0.020757252446
33000000000.0 0.092290145738 0.019222871803 0.44377422367 -0.099986311838 0.44396947332 -0.10024500718 0.090908938439 0.021869314055
33250000000.0 0.092842319457 0.019768728756 0.44329663272 -0.099738600513 0.44357266058 -0.10009990951 0.091355290781 0.021080975183
33500000000.0 0.092943770961 0.021373024742 0.44387375382 -0.10167980518 0.44404861399 -0.10217109523 0.091373068992 0.022536374138
33750000000.0 0.09261059689 0.020191540033 0.44316690112 -0.10250091244 0.44332624996 -0.10273769031 0.091968386583 0.022202820566
34000000000.0 0.093444693844 0.021071122702 0.44221485285 -0.10336249571 0.44255205711 -0.10320120589 0.09222675764 0.02101463696
34250000000.0 0.093330029913 0.02070009857 0.44141335481 -0.10288900601 0.4416378883 -0.10309528128 0.091604910017 0.021309661556
34500000000.0 0.093524360935 0.02135570261 0.44182310773 -0.10275453969 0.44209108468 -0.10291936952 0.092254861395 0.020903964409
34750000000.0 0.092488619846 0.02125666466 0.4422332478 -0.10374378228 0.44247148819 -0.10378942121 0.092649670737 0.020870911071
35000000000.0 0.094213915495 0.021108520458 0.44197015842 -0.10572910669 0.44228518981 -0.10550376587 0.09286389353 0.021267203651
35250000000.0 0.094035845127 0.021837074532 0.44198365223 -0.10538812837 0.44223855575 -0.10543087965 0.092320051478 0.020549111746
35500000000.0 0.093682158974 0.020872423621 0.44174747514 -0.10713480476 0.44202365524 -0.10681860966 0.092073789662 0.021405972431
35750000000.0 0.09337403461 0.020894677801 0.4419314597 -0.10796043783 0.44221515816 -0.10740386197 0.092360944473 0.021009643105
36000000000.0 0.092579376563 0.021649568888 0.44095724553 -0.10844306562 0.44115787643 -0.10839161694 0.092843664499 0.021290920341
36250000000.0 0.093882706839 0.022212132102 0.44052404919 -0.10957121219 0.44068672498 -0.1096908617 0.093022795932 0.021878768253
36500000000.0 0.093841485303 0.022014580411 0.44002605651 -0.10906820405 0.44019194337 -0.10913407398 0.093923989888 0.021048080322
36750000000.0 0.094199715765 0.021639094636 0.43951850604 -0.10984918968 0.43964225525 -0.11022790859 0.093184725215 0.019330696382
37000000000.0 0.094543123946 0.022107021499 0.44004407096 -0.1100955256 0.44014666417 -0.11037510418 0.092466846829 0.02124032072
37250000000.0 0.094046870363 0.021912141303 0.44034010769 -0.11109850108 0.44048044658 -0.11137677318 0.092640013967 0.020266132865
37500000000.0 0.094728688322 0.022570177089 0.44038493544 -0.11246818759 0.44040380387 -0.11270323501 0.091999192094 0.021175391244
37750000000.0 0.094233274756 0.022641031562 0.4401525881 -0.11247117896 0.44031884603 -0.11286251874 0.092606535602 0.021838652609
38000000000.0 0.09510910414 0.02183857519 0.43976827262 -0.11358743586 0.43990845001 -0.11372451985 0.092615289331 0.020900910716
38250000000.0 0.09423953025 0.022912007164 0.43966732623 -0.11440640009 0.43993260884 -0.11414446408 0.09312219279 0.021442720658
38500000000.0 0.093785952384 0.021930446246 0.43971045994 -0.11546351606 0.44000513008 -0.11526783651 0.092833064631 0.021243132644
38750000000.0 0.094402233152 0.023541494448 0.43834101998 -0.11635713477 0.43842804548 -0.11612847337 0.093175577896 0.021828946193
39000000000.0 0.093440443036 0.023309460435 0.43820808764 -0.11612526267 0.43835270092 -0.11627251844 0.093569478162 0.021017887868
39250000000.0 0.095752294551 0.023704290799 0.43845387422 -0.11752226334 0.43857250774 -0.11759886758 0.092411693403 0.021609056684
39500000000.0 0.095840400206 0.02414822176 0.43826313856 -0.11742087825 0.43834150072 -0.11746882573 0.09355330715 0.021315497161
39750000000.0 0.094141981089 0.022101452954 0.43888030921 -0.11880894555 0.43896054098 -0.11893914247 0.092752901992 0.021474013603
40000000000.0 0.095484020934 0.023563518662 0.43732747584 -0.11951905599 0.43740680492 -0.11980553805 0.092842052299 0.022002845748
40250000000.0 0.094500063295 0.02398086294 0.43784111825 -0.11951204927 0.4379323122 -0.11980287285 0.093107519933 0.022295570605
40500000000.0 0.094771870651 0.024299832612 0.43780880664 -0.12085383346 0.4378465447 -0.12125403273 0.093599538575 0.022429477437
40750000000.0 0.095235786947 0.023357412675 0.43755795504 -0.12131639265 0.43754992492 -0.12178807164 0.093523913976 0.022050496292
41000000000.0 0.095835671471 0.023769336312 0.43666336798 -0.12156898742 0.43681311314 -0.12182488352 0.093038587515 0.020812944096
41250000000.0 0.095353409083 0.024192237006 0.43729933008 -0.12233663347 0.43745174755 -0.1224052462 0.093099703117 0.02166510947
41500000000.0 0.094495347821 0.024239993314 0.43750142495 -0.12315410841 0.43753371183 -0.12324255512 0.092481885179 0.022104467437
41750000000.0 0.096419751562 0.026443586148 0.43686404383 -0.12458157913 0.43705594654 -0.12447549784 0.093583690082 0.022512402667
42000000000.0 0.095231950343 0.02531672239 0.43703094075 -0.12548970507 0.43710304665 -0.12513437778 0.092465588118 0.022755867611
42250000000.0 0.095716169084 0.024091388694 0.43626364674 -0.12592920016 0.43657644403 -0.12581368454 0.092329364485 0.022996228864
42500000000.0 0.096114344103 0.026153438182 0.43667902151 -0.12702378026 0.43702106801 -0.12631898182 0.093846712503 0.023203957351
42750000000.0 0.095703194995 0.025730896271 0.43557415404 -0.12709109603 0.43583250817 -0.12683771628 0.092915712103 0.022389134204
43000000000.0 0.096352677574 0.025812660578 0.43537618745 -0.12808700471 0.43552807695 -0.12781178632 0.093139751988 0.023765616563
43250000000.0 0.096931306081 0.025117633209 0.43471223727 -0.12828369171 0.43471659946 -0.12853298487 0.093611228869 0.023254586951
43500000000.0 0.096236885203 0.025369176333 0.43563597212 -0.12913985589 0.43568541676 -0.12925713903 0.093812334381 0.023289369385
43750000000.0 0.095535324268 0.026501181642 0.43476463675 -0.1292906575 0.4348450031 -0.12972965985 0.093710065241 0.023550679825
44000000000.0 0.09651679192 0.024777470758 0.43585120086 -0.13061215969 0.43584203857 -0.13088671033 0.0937160094 0.023271273142
44250000000.0 0.096947714812 0.02674083117 0.43599856947 -0.13117454246 0.43587376999 -0.13163568279 0.093639738395 0.02358388888
44500000000.0 0.094807089458 0.025023480324 0.43545061529 -0.13241796673 0.43523571597 -0.13330590753 0.093518866394 0.024284886426
44750000000.0 0.097506438081 0.02548083453 0.43438781741 -0.1331335576 0.4342948235 -0.13399183828 0.094161750166 0.0232103519
45000000000.0 0.09601092711 0.028220899029 0.43458652334 -0.13431771094 0.43446472645 -0.13500772543 0.093599090195 0.024600913422
45250000000.0 0.0972919158 0.026020291192 0.43380177588 -0.13555803459 0.43382213668 -0.13605277082 0.093925156247 0.025271325473
45500000000.0 0.098837623286 0.026907274045 0.43315498159 -0.13579260436 0.43336202008 -0.13571476174 0.094617655262 0.024907720557
45750000000.0 0.097459479484 0.027130541767 0.43338330098 -0.13656403658 0.43337057935 -0.13655014901 0.095691553373 0.025637241148
46000000000.0 0.098739148961 0.0266663599 0.4331112754 -0.13665830217 0.43311560055 -0.13673461968 0.095276324225 0.023875903799
46250000000.0 0.09801589538 0.026597989578 0.4327494193 -0.13789128247 0.43289937879 -0.13769782745 0.094372511001 0.024013283824
46500000000.0 0.097687235853 0.025776459326 0.43301008052 -0.13867079722 0.43311778977 -0.1384940919 0.094055919154 0.025077442617
46750000000.0 0.096824896445 0.02759246206 0.43267383371 -0.13964943636 0.43305946296 -0.13911671226 0.094728030572 0.025188921926
47000000000.0 0.096761180415 0.027547274526 0.43198036333 -0.14067798447 0.43219252856 -0.14008826632 0.09547634627 0.024471224784
47250000000.0 0.096269519659 0.028027967725 0.43263973356 -0.14182890976 0.43290786274 -0.14133645379 0.094722643587 0.024865578145
47500000000.0 0.096311986383 0.028550773179 0.43102285926 -0.14247924472 0.4310979941 -0.14269809061 0.094966105924 0.025190939963
47750000000.0 0.096941372781 0.028854280362 0.43136224511 -0.14289350328 0.43148879146 -0.14296464962 0.095358274847 0.024731870527
48000000000.0 0.098381506777 0.028559775911 0.43091007937 -0.14329908643 0.43111678697 -0.14342228213 0.095566414409 0.0251639939
48250000000.0 0.098518235213 0.028760882713 0.43028992069 -0.14408666253 0.43023211254 -0.14452673205 0.095536361004 0.026084471649
48500000000.0 0.099515746793 0.028961332871 0.42978352755 -0.1447663591 0.42961019705 -0.14554067632 0.095245339616 0.024844516332
48750000000.0 0.09972211557 0.027070864387 0.42904809404 -0.14491486549 0.42909582507 -0.14548928846 0.097194997382 0.025097912103
49000000000.0 0.099783815878 0.027623046304 0.42940721909 -0.14563805516 0.42935551485 -0.14615317689 0.095709069732 0.024947682743
49250000000.0 0.09931725006 0.028188791916 0.42939385689 -0.14668144161 0.42937096217 -0.14709704785 0.095965550235 0.025181121941
49500000000.0 0.099012832297 0.026992850728 0.42900992935 -0.14689207339 0.42917566267 -0.14713973395 0.095739926424 0.024644699414
49750000000.0 0.099174853147 0.02849111609 0.42952747699 -0.14818083621 0.42958847545 -0.14836276372 0.095614956097 0.025422920029
50000000000.0 0.09886446885 0.02917790179 0.42905416175 -0.15008720252 0.42933417101 -0.14997284811 0.096316791542 0.026018530889
